&FORCE_EVAL
  METHOD         Quickstep
  STRESS_TENSOR  ANALYTICAL
  &PRINT
    &STRESS_TENSOR
    &END STRESS_TENSOR
  &END PRINT
  &DFT
            BASIS_SET_FILE_NAME /usr/local/cp2k-6.1/data/BASIS_MOLOPT
            POTENTIAL_FILE_NAME /usr/local/cp2k-6.1/data/GTH_POTENTIALS
            BASIS_SET_FILE_NAME /usr/local/cp2k-6.1/data/BASIS_ADMM_MOLOPT
            BASIS_SET_FILE_NAME /usr/local/cp2k-6.1/data/BASIS_ADMM
            WFN_RESTART_FILE_NAME el-RESTART.wfn
!    CHARGE +2
    &MGRID
      CUTOFF       800
      REL_CUTOFF    50
    &END MGRID
    &QS
    &END QS
    &SCF
      SCF_GUESS  RESTART
      MAX_SCF    50
      &OT
        MINIMIZER       DIIS
        PRECONDITIONER  FULL_SINGLE_INVERSE
      &END
      &OUTER_SCF
        MAX_SCF  50
      &END
      &PRINT
        &RESTART OFF
        &END
      &END
    &END SCF
    &PRINT
!       &MO LOW
!          EIGENVALUES
!          &EACH
!              QS_SCF 0
!          &END EACH
!       &END MO
       &MO_CUBES
        NHOMO 1
!       NLUMO 1
        WRITE_CUBE F
         &EACH
          MD 50
         &END EACH
       &END MO_CUBES
!       &TOT_DENSITY_CUBE
!       &END
    &END PRINT
    &XC
          ! functional part
      &XC_FUNCTIONAL
    &PBE
     PARAMETRIZATION REVPBE
            &END PBE
              &END XC_FUNCTIONAL
      ! non-local vdW part
      &vdW_POTENTIAL
         DISPERSION_FUNCTIONAL NON_LOCAL
         &NON_LOCAL
           TYPE RVV10
           PARAMETERS  9.3  0.0093
           KERNEL_FILE_NAME  /usr/local/cp2k-6.1/data/rVV10_kernel_table.dat
           CUTOFF      400
         &END NON_LOCAL
      &END vdW_POTENTIAL
    &END XC
  &END DFT
  &SUBSYS
    &CELL
      ABC [angstrom] 12.274 12.071 47.500
    &END CELL
    &COORD
  C         1.7858387039        6.5450685644       26.3409113979
 Br         3.0907494891        6.3445303125       22.8588392375
 Sn         4.1652026025        3.8253316595       23.4951667013
 Br         6.8584455317        4.4621330825       23.7000870850
 Br         4.5639666459        3.6906426501       20.7643946380
 Br         0.8359789651        2.2748681376       22.7530189052
 Sn        10.6541329838        3.7399798503       23.2207623676
 Br        10.7894649953        3.8214751326       25.9745757929
 Br         8.9994476183        1.6301648220       23.0129434293
 Br        10.9551389125        3.3001284376       19.0465062454
 Sn        10.8688104046        3.1980398912       16.1977704651
 Br         8.3896492100        4.5007149468       16.2329260603
 Br         5.9986885880        1.5281551862       15.7676073969
 Sn         3.9098911011        3.2680743983       15.8951661436
 Br         1.8796794673        1.6431133946       15.5555660659
 Br         0.1965036336        5.3083586136       15.8694871074
 Br         4.7855209591        4.1759284088       27.4823117985
 Sn         4.6063057104        3.6407803725       30.3480230027
 Br         3.3990376386        1.1900612968       29.7629556020
 Br         7.2982558883        2.9242042778       31.0881960292
 Br         0.8930814536        4.3423977275       29.4798682773
 Sn        10.5978090280        3.7845903712       29.9070573963
 Br        11.0230647313        3.6590548244       32.7016074210
 Br         9.9037910650        6.3338962725       30.2176905947
 Sn        10.3896579681        3.3390471379       36.8338714424
 Br        10.8329712593        3.7591383528       39.4990411183
 Br         9.3315835104        0.9546367557       37.4876945396
 Br         6.8295133441        4.4225309473       38.0719032574
 Sn         4.1862561952        3.8573374720       37.5774585698
 Br         4.7832942642        3.4681956813       34.8879503631
 Br         2.9735192744        6.3895705051       37.2721331054
 Br         0.6642960174        2.8353942223       36.1971909042
 Br         4.1710316373        3.7809050927       41.8235644741
 Sn         3.9766377952        3.5111427881       44.9775353335
 Br         4.8064994310        1.0163787289       44.7098930654
 Br         6.3829656775        4.6381859761       45.1041706138
 Br         0.2032613088        3.2623854609       43.1419490704
 Sn         9.9593036730        3.3881159615       43.9071201827
 Br         9.9428556879        6.0572106456       44.4737376698
 Br        10.0679344979        6.9515915416       37.7153186445
 Sn         9.4266322995        9.5298689973       37.3461065318
 Br         8.8387472786       10.1151717965       40.0671681033
 Br         6.6136779700        8.6796710336       37.0935755978
 Br         0.9535011551       10.5706266674       37.4791878643
 Sn         3.7251996599        9.7751385232       37.5429035679
 Br         3.2993156990        9.2011967899       34.8136067906
 Br         4.6918022591        0.3564503874       37.0543910125
 Br         8.8558298468        9.2532361133       32.4790330344
 Sn         9.6109364302        9.9875431373       30.0898665693
 Br        10.1157007674        0.4798679437       31.2582172636
 Br         7.1306687400       10.6272037359       29.2013672240
 Br         0.9790342971        8.9157457212       30.6959671950
 Sn         3.6439373136        9.7510710283       30.0611414520
 Br         4.4837571134        7.1751375815       29.9697139815
 Br         3.2307583198        9.8537294861       27.3283133557
 Sn         3.5672954718        9.9707444429       23.5243408315
 Br         3.2702467637        9.6166848905       20.7839984046
 Br         4.8226726606        0.2654519571       22.9287246066
 Br         6.8388090021        9.4061564033       22.7232380413
 Sn         9.6208541942       10.0442728298       23.2319260746
 Br         9.1133077270       10.5212721575       25.9046793460
 Br        10.0813440772        7.2385463111       23.4349656051
 Br         0.8498224228       10.2813378010       24.2646944352
 Br         8.8931635653        9.3737449460       18.5359240521
 Sn         9.3046995346        8.5311885518       15.6786011734
 Br        11.0460831426       10.5637633195       15.3406316074
 Br         7.1549535667       10.0818756173       14.9604506249
 Br         1.7506739811        9.6640046923       17.0858885023
 Sn         4.1745144944        9.0150502070       16.4463079553
 Br         3.7451090635        7.2065415493       14.6253053383
 Br         2.2031879562       10.2985682753       41.9128610802
 Sn         3.0050213764       10.1617533399       44.4831687477
 Br         5.4715296426        9.1756701189       44.0293453139
 Br         8.8740433824       12.4417182355       44.6100496915
 Sn        10.8057804885       10.5317326165       44.3609705900
 Br        12.2911120628       -0.1727058502       46.2031723253
 Br         1.3017222377        8.0448176992       44.9456248925
  N         6.7622202384        6.1806956609       20.1951989428
  C         6.2636033957        6.6831477327       18.8720673315
  C         8.1956693665        5.6134206106       20.2042499369
  N         6.6975200058        6.2239282642       34.7555247223
  C         5.9658772957        6.9375842238       33.6350687072
  C         7.9555056991        5.5846264324       34.3645859369
  N         6.6705280270        7.0453757669       40.3879586418
  C         7.4181545467        5.9314014729       41.0473824897
  C         5.3140397950        7.3832200825       41.0661063269
  N         7.3105626573        7.4158405003       25.7401884626
  C         8.0512764737        7.0567165430       26.9929408593
  C         5.9859447082        8.0401836623       25.8550031934
  N         7.3553165274        0.1555620890       18.7168796479
  C         5.9576022469       11.7283250689       19.2554527482
  N         7.3699784742        0.0687919282       33.3159872521
  C         5.9240080392       11.8341094024       33.5066884743
  N         6.5141169348        1.5768087292       27.4768371807
  C         7.9620896975        2.0220228215       27.6548571272
  N         6.2738195480        1.4064428191       41.6747085334
  C         7.4961916959        1.6497528473       40.8101345065
  N         0.5919133060        6.4514574683       33.1910584882
  C         1.8085950834        5.5970848016       33.3350656512
  N         0.9348304704        6.6467442869       18.9672269076
  C         1.9239989942        5.5983322521       19.3106832941
  N         0.3476810950        6.3560235444       41.9582780556
  C        11.8702200836        7.4127163855       41.3180145071
  N         0.8722307669        7.0870257459       27.3350710201
  C        11.7498035692        7.3749734218       26.8772811738
  C        12.3827031884       11.8200649290       33.6971817154
  N         1.4733877730        0.1404524633       34.1782060744
  C        12.1800071911       11.3595211466       19.9683306504
  N         1.1707597678       -0.0773412113       20.2924691893
  C         1.8894446718        1.6179208222       39.9093955274
  N         0.6204550974        1.0718309973       39.3197444232
  C         1.6935264365        1.7475873914       26.5508485245
  N         0.3347030776        1.1166358405       26.3816012023
  C         8.1548992520        0.4486267266       34.5226517531
  C         8.1050916714        1.0575702520       19.6710568838
  C        12.0757839279        7.0751818068       19.9186485921
  C        12.4534390746        7.1616304790       34.4337115183
  C         6.2310713003        0.9238340842       26.2007835070
  C         5.4354082644        0.2415704328       41.3015928944
  C         1.7981959685        6.3479285731       41.4289078520
  C         1.7515109509        0.6987615970       19.1493003414
  C         2.4602045887        0.5730644926       33.0764268358
  C        12.0633792110        0.6152758101       27.6816769683
  C        12.0875401547        0.3543919476       40.3000273130
  H         6.0309672249        5.6256591907       35.1938285792
  H         1.4396912102        7.8914374319       27.6858360310
  H        12.0127830288        1.8011000090       25.9648204871
  H         7.8126200432       11.2497210689       32.9453253778
  H         7.8651744153        8.0206916169       25.1376939598
  H        12.0032447249        6.0176427769       32.8710647626
  H         2.0342364478       11.4492519331       34.7172821437
  H         5.9154071655        2.3801910719       27.4677087273
  H         6.8874671614        6.9428925302       35.4666322273
  H         0.8585360013        6.4145085531       28.1499394427
  H         0.3713064371        0.3212279664       25.7160942812
  H         7.5055432398        0.6822538308       32.5076027885
  H         7.2122546403        6.5944224695       25.1422544543
  H         0.6443539785        7.1932571935       32.4319618258
  H         1.2826765415        0.9138276177       34.8891198884
  H         6.3052864133        0.9583169044       28.2551896578
  H         5.0632311131        7.4950841757       33.9595533963
  H         1.2399110152        5.8978986790       25.6164404645
  H        11.3743106041       -0.2661706405       27.4877227839
  H         9.0478780836        1.0596315219       34.2837834637
  H         8.2355663179        7.9424443198       27.6088694848
  H        11.4886801087        7.5417403224       34.1614001511
  H         3.3796952726        0.2210341877       33.3132439050
  H         5.3868372029        0.3459248752       26.4026489631
  H         5.6189312945        6.2804981296       32.7864513250
  H         2.6795396864        6.0659103951       26.9247251023
  H        11.4952171592        1.4072191899       28.2556348660
  H         8.4959784940       -0.4654087653       35.1397002898
  H         7.2547162326        6.4578439501       27.4691248410
  H        12.4446307413        6.5033757517       35.2670653745
  H         2.0334212052        0.1149699723       32.1509043986
  H         6.0043832469        1.7307225736       25.4744745260
  H         6.6687187007        7.6708249793       33.1893125298
  H         2.2769533177        7.3904373024       25.7738768521
  H         0.6678326750       12.3592521503       28.3203341153
  H         7.4710265211        1.0233556345       35.1587845070
  H         8.9094162943        6.4688991128       26.7363136826
  H         0.8277782520        8.0404647751       34.7632041019
  H         2.3802268831        1.6292499553       33.1974065376
  H         7.0227892719       12.3162104796       25.8531508460
  H         7.8550010890        4.7681648574       33.6083616097
  H        11.6534638368        8.1637079483       26.2096488240
  H         1.5754197196        2.5112349477       27.3251159034
  H         5.6667775001       10.9951843549       34.1091748631
  H         6.0118050702        8.9653816003       26.4622899692
  H         1.5811390329        4.8006071031       34.1630813133
  H        12.3367224147       10.9964408918       32.9883104125
  H         8.4384343397        1.7046990370       26.7359940703
  H         8.4414728613        5.2959801252       35.2935705635
  H        11.2871198778        7.6329714045       27.8580965837
  H         1.8868164542        2.1416149104       25.5426696886
  H         5.2939798669       11.7493145890       32.5600710262
  H         5.5283313686        8.3659795073       24.9217740320
  H         2.0813442559        5.0345834650       32.3994145718
  H        11.8143238599       11.5910095492       34.5942683808
  H         7.9697992050        3.0900602284       27.7951178246
  H         8.5865460167        6.4091006949       34.0019215227
  H        11.3346159206        6.4390169505       26.6148858281
  H         2.4104031303        0.9596680107       26.8634891241
  H         5.6061310906        0.6939055118       34.0096592409
  H         5.3132507592        7.4097883145       26.3934547456
  H         2.5927520361        6.2797961119       33.7471048738
  H        11.8223823181        0.5994088780       33.2507446733
  H         8.4771204668        1.4910767966       28.4536696592
  H         6.0885536277        5.4645724136       20.5091363815
  H         7.9611623422       11.3777228286       18.4544486144
  H        12.8181832143        6.2238397995       18.0778532907
  H         1.8713558067       11.2096782117       20.5085431398
  H         6.7176868469        6.8672170198       20.9708260863
  H         7.2160897010        0.7019046452       17.8303328195
  H         1.3116464589        7.5149935928       18.5730034906
  H         0.9414763901        0.6125890452       21.0862121481
  H         5.1531214230        6.5032169744       18.8363657848
  H         9.2016144563        0.9305068491       19.3996430873
  H        11.6892722827        8.0083387186       19.5670389554
  H         2.6418963797        1.2718293585       19.5338563588
  H         6.7521523248        6.2212417273       18.1042946360
  H         7.7926021407        0.6555949744       20.6944088708
  H        11.2694505583        6.3050393438       19.9490015939
  H         2.0668327551        0.0831775013       18.3558035341
  H         6.4962833274        7.7588982508       18.7591188147
  H         7.7556068188        2.1314772637       19.5011396326
  H         0.0721281415        7.4400849374       20.9113264157
  H         1.0088516199        1.3157118517       18.6607364382
  H         8.2832319842        4.8561432784       19.4170691712
  H         6.2444498424       11.1032522108       20.0626485754
  H         1.3122895117        4.7158000839       19.5030353879
  H        12.1759518446       10.6460526901       19.1007888784
  H         8.2901719781        4.9885002141       21.1304588406
  H         5.5226177357       11.1217049402       18.4829300694
  H         2.3801714096        5.3619317410       18.2954040131
  H        11.8503293510       10.7559594354       20.8257619697
  H         8.8876814704        6.4086514027       20.1220785147
  H         5.3765529755        0.4606725484       19.5351251929
  H         2.5333806255        5.8989492811       20.1338739733
  H        11.4308162221        0.0704952991       19.8459895716
  H         0.3157233219        6.4184869629       43.0044504680
  H        -0.0315003859        1.8529008612       39.0434347521
  H         7.3735724830        7.8279221386       40.3656550820
  H         5.5649899620        2.1971641877       41.5788390304
  H        -0.0129562906        5.3287515110       41.8116874383
  H         0.7410579374        0.6123938996       38.4196296725
  H         6.4450319456        6.7342522843       39.4021851231
  H         6.5139082385        1.2577667481       42.6717170691
  H         2.1591870758        5.3131237118       41.5570561029
  H        11.2179646338        0.0469143227       39.7110537914
  H         8.2434720392        5.5671711948       40.5309217606
  H         4.5479213217       12.2332487040       41.9388396731
  H         2.3708223373        7.1209942188       41.9737786688
  H        11.6932531404        1.1578725945       41.0104837242
  H         7.8492440299        6.4709369796       41.9642970844
  H         5.2919608389        0.3237803898       40.2053144780
  H         1.8183140598        6.5861299415       40.3646849755
  H         0.3116940389       11.6475105577       40.7440102686
  H         6.7617566963        5.1639727410       41.3713117631
  H         6.0952881361       11.4349001063       41.5412022014
  H        -0.2435837441        8.4304295941       41.7409129697
  H         2.2345687973        0.8169135808       40.6313552245
  H         5.2917487513        8.3715388148       41.6435326219
  H         7.2312054504        1.8879257747       39.7661132897
  H        10.7633212626        7.0947560996       41.1717119926
  H         1.6696073343        2.5645102705       40.4823251200
  H         4.5055026144        7.5280420991       40.2797543799
  H         7.9084988138        2.6412097123       41.1132948778
  H        12.2538747487        7.3531374780       40.3011033124
  H         2.7059708372        1.6874583855       39.2112961952
  H         5.0471043918        6.4637881949       41.6953672262
  H         8.1608732902        0.7612580134       40.7903477849
  O         4.5920235450        3.1585071240       47.7544503667
  H         5.2510337886        3.8851535291       47.7546310577
  H         5.1242584331        2.3465359200       47.9086207218
  O         5.4021602856       10.3604277601       47.1201628141
  H         5.6254517205       10.2475010845       46.1855430620
  H         5.7644198390       11.3199641896       47.2443304531
  O         9.8223169925        9.5244757080       46.1606182088
  H        10.4432133202        9.0693989841       46.8080885049
  H         9.0152511824        8.8543303918       46.4019557825
  O        11.0830778647        3.2106683018       46.0108497042
  H        10.3234031081        3.4435103639       46.7452168937
  H        11.3077233694        2.2870623095       46.1018682841
  O        10.0961641966        1.5224810412       13.7629401278
  H        -1.3836202140        1.2658977484       13.2056058053
  H         9.9571621017        0.6425513166       14.2512689984
  O         9.1605713024        7.5205815498       13.2511874827
  H         9.6008231852        6.6903236763       12.9356464063
  H         8.9132508114        7.9966791815       12.4402857294
  O         3.9799375277       11.1162958237       15.1044229012
  H         4.7505282828       11.6881281530       14.8814645727
  H         3.2166049066       11.7131731342       15.2464665472
  O         4.4048876546        3.8334335666       13.7456418653
  H         5.3575789428        3.7094363480       13.3242436244
  H         3.8913770093        4.3028660362       13.0936293789
  O         4.2391471152        7.3433202847        7.1714140143
  O        10.5497171278        2.1783739118        6.0092653318
  O         3.2552862705        3.2567417600        5.3394082948
  O        10.1916924369       12.3112709869        9.3221641853
  O         8.3305731369        4.2602822068        5.7926579100
  O         7.2108074245        2.2163934928        4.3709930146
  O         2.2720557830        7.9255643837        0.6162015789
  O         8.8398016835        8.2213769848       10.7781820188
  O         4.6666442471       11.5981419723        2.6753280469
  O         0.9979625599        2.9038958980        7.2995716538
  O         2.5771618801        6.9216633919        9.7595794006
  O         1.8242932143       10.2978434463        2.1393249775
  O         0.5723428071        5.3945162995        8.6185538110
  O         4.7910879604        4.3776938366        9.5009241605
  O         2.8355148903        9.6637269829        4.6661961472
  O        -0.2686584990        1.1325491320        4.1411365792
  O         2.4232943409        6.9422810656        4.9231030538
  O         9.7273149827        3.6527600260        0.6043926108
  O         1.5733777585       12.0512887506        5.7315134582
  O         8.9243848801       11.0169429713        1.0894101428
  O         8.7239087930        2.4999283942       11.3111057561
  O         3.9198087311        4.2686378502        2.8398640448
  O         4.3412598383        0.9390212833       11.1877117944
  O         6.3279182148        6.6240338984        9.3250504695
  O         6.0934824790        0.9106571653        0.8079511977
  O         1.4942395329        1.8802240851        1.6927080557
  O         4.9838283471        7.9752141054       11.4704294203
  O         5.3762216554        7.7697448287        0.5459768049
  O         5.1402565694        1.6564650929        8.6046039216
  O         1.4516278737        9.6362498594       10.2429504086
  O         1.7296853705        1.9730059373       11.0678864702
  O         9.9234547159        8.0529694896        3.2629079087
  O         1.7353343542        5.6698537924        2.3384806505
  O        10.9570697557        6.2772335952       10.0782327574
  O         8.8377041825        1.4428690465        2.3131654805
  O         4.3976087493        9.8570942901        7.2119300981
  O        10.2442559492        4.7940204525       12.3248376469
  O         7.5671461866        8.0259544474        4.6531978831
  O         5.9754447818        6.2508103381        3.4668104477
  O         8.0908410667        2.3292735297        8.6222596706
  O         4.3800924655        0.7500997160        4.8984235326
  O         8.7453958168       11.9257568703        5.8258299570
  O        11.1897874891       10.5387920996        2.7354204263
  O         7.4701605640        4.3087189600        1.8883501490
  O        10.8864903710       10.9261295001        6.9748022455
  O         6.1371343851        3.1877377544       11.7622150650
  O         5.9383374883       10.6365900709       11.6623737193
  O        11.8024057799        0.4181510405       11.6809965154
  O        11.1417450137        7.8351285164        0.6124506173
  O         7.0103826704       10.6655707810        7.5045150842
  O         8.7354923340        5.1621882889        8.5718232908
  O         8.0024601109       10.6942400879       10.0859708858
  O         0.6678884796        4.1033626634       12.5641387279
  O         7.5867946267        7.9391251576        7.2585465496
  O        -0.3464315710        3.7359066574        2.2000628063
  O        10.4716889753        8.4271325077        6.5278494006
  O         7.2605840259       10.7697327039        3.3716301679
  O         3.0393088439        5.0181074945       11.4959048420
  O         1.5888774369       12.0686131343        8.4112490446
  O        10.5443950002        4.6913074317        4.4638761072
  O        11.9041496566        9.2138948542       12.4992567321
  O         5.6886108007        4.9535121312        5.8829328174
  O        12.3744049237        6.3406848334        6.1280201408
  O         8.2351396332        7.4474801217       -0.0823991885
  H         3.7544010401        6.9198549326        6.4395241675
  H         4.9086811838        6.7491758135        7.6074970070
  H        11.0372563547        1.6614532833        5.1312638866
  H         9.8622232657        1.5981277914        6.3649712422
  H         2.5734627839        3.3094102048        6.0832954416
  H         3.7621430525        2.3249796193        5.2382688041
  H        10.8600872912       12.3918723531       10.0952091898
  H        10.6036149641       11.7713604673        8.6568620733
  H         8.8044665826        4.7763049217        5.1378522599
  H         8.3574850338        3.3088813016        5.4695326827
  H         6.4794513200        1.6594470951        4.6160785467
  H         7.7977532968        1.6908518371        3.8013846568
  H         1.8616728930        7.9473590252       -0.2020020632
  H         3.2306154985        7.7642607578        0.4835754362
  H         8.7289205191        9.2098838397       10.4807475673
  H         9.7014218231        7.7622139068       10.4076415238
  H         5.3610074188       10.9104034159        2.9407057509
  H         3.9380790083       11.2147764244        2.1040357060
  H         0.8271876655        3.5797622431        7.9403897721
  H         0.0323200189        2.6484091896        7.0622499514
  H         2.7691883484        6.3271312574       10.5499997209
  H         3.3357198996        6.7791944109        9.1238931223
  H         2.2067452321       10.0700664131        3.0313228916
  H         2.1030296393        9.5456581503        1.5557737993
  H         0.2364115352        5.7291700946        7.7012383056
  H         1.3344013169        6.0251013901        8.7462256799
  H         5.3912339622        3.9049340382       10.1212627059
  H         4.7865587051        3.8000501969        8.7762046327
  H         3.6322485843        9.8082633299        5.2541452831
  H         2.8547089304        8.6923585004        4.4693253591
  H         0.5298798497        0.9029669493        4.7965265622
  H        -0.6370709873        0.2157997457        3.8710671427
  H         2.1441072163        6.5093841434        4.0845614634
  H         1.6112768700        6.7443886624        5.5247681267
  H         8.8146044125        3.8526478789        0.9370347466
  H        10.4438500161        3.9622949633        1.3031505605
  H         1.3829840704       12.1498848824        6.6908469711
  H         1.7921781173       11.0761173182        5.5906676810
  H         9.9135450822       10.9032120077        1.3385496178
  H         8.9464967209       10.9095469426        0.1614176424
  H         8.9840534852        1.6722729340       11.7090457082
  H         8.5191647144        2.2918872258       10.3201212614
  H         3.7743243673        3.6118621579        2.1679651999
  H         3.3628506268        3.9199809920        3.6028388019
  H         4.5438864823        1.2415813201       10.2547001379
  H         4.6901913330       12.0971401699       11.2967298446
  H         6.3810449380        7.1293513290       10.1794604364
  H         5.6741271438        5.8725522086        9.4537720559
  H         7.0288304388        1.1279193891        1.0802373435
  H         5.6292513812        0.5858427949        1.6328481319
  H         1.5655145143        1.0952390735        1.0797930590
  H         1.2830684069        1.5504927027        2.5827072164
  H         5.1999362931        7.7698687204       12.4048898372
  H         4.0045484980        7.9551349187       11.5157614025
  H         5.5394548083        7.7714765815        1.5268294050
  H         5.3479383419        8.7372306603        0.2124871605
  H         6.1199613777        1.9428073404        8.5779343117
  H         5.0145436234        1.0611760630        7.8501651623
  H         1.6336440100        8.7071944103        9.9527115714
  H         0.9138100844        9.5886652602       11.1105163682
  H         2.6315985350        1.8822734492       11.5117883713
  H         1.3447924796        2.8421228194       11.5071077664
  H        10.4872544981        7.5888202832        3.8848446592
  H         9.0781324136        8.0152635942        3.7171871423
  H         2.5656092732        5.1721101600        2.3139726925
  H         1.7795897261        6.4876567281        1.7452471058
  H        10.2300774561        5.9579589853        9.4449803023
  H        11.7733718032        6.0507613285        9.5824393270
  H         9.6313664052        1.9233638901        1.9783558474
  H         8.9730199049        0.5814247633        1.8505196564
  H         4.3794819819        8.7917270820        7.0371976342
  H         3.9755190108        9.9434844699        8.1726434226
  H        10.5312694854        5.2697701576       11.5232235690
  H         7.4902306332        7.8929729618        5.6225981125
  H         6.8934343083        7.4394985996        4.2474110209
  H         6.0434319486        5.8123916981        4.3008275337
  H         5.2414854651        5.8364140176        3.0501020777
  H         8.6709567540        1.6538899393        8.2177970487
  H         8.4208211269        3.2781753865        8.4569604576
  H         3.5532192897        0.3747843896        5.2946661482
  H         4.5433207231        0.1959913561        4.0623522477
  H         8.1589270516       11.3595407361        6.3794419028
  H         8.3223304893       11.8918125471        4.9147813627
  H        -0.1341771301       10.3620923888        2.2625302087
  H        10.9064561264        9.5998388766        2.9390165325
  H         7.2867394942        3.8822117265        2.7519753125