&EXT_RESTART
 RESTART_FILE_NAME /home/fambrosi/DMA/dynamics/bipolaron/perov-md-1.restart
&END EXT_RESTART
&FORCE_EVAL
  METHOD         Quickstep
  STRESS_TENSOR  ANALYTICAL
  &PRINT
    &STRESS_TENSOR
    &END STRESS_TENSOR
  &END PRINT
  &DFT
            BASIS_SET_FILE_NAME /usr/local/cp2k-6.1/data/BASIS_MOLOPT
            POTENTIAL_FILE_NAME /usr/local/cp2k-6.1/data/GTH_POTENTIALS
            BASIS_SET_FILE_NAME /usr/local/cp2k-6.1/data/BASIS_ADMM_MOLOPT
            BASIS_SET_FILE_NAME /usr/local/cp2k-6.1/data/BASIS_ADMM
            WFN_RESTART_FILE_NAME el-RESTART.wfn
    CHARGE -2
    &MGRID
      CUTOFF       800
      REL_CUTOFF    50
    &END MGRID
    &QS
    &END QS
    &SCF
      SCF_GUESS  RESTART
      MAX_SCF    50
      &OT
        MINIMIZER       DIIS
        PRECONDITIONER  FULL_SINGLE_INVERSE
      &END
      &OUTER_SCF
        MAX_SCF  50
      &END
      &PRINT
        &RESTART OFF
        &END
      &END
    &END SCF
    &PRINT
!       &MO LOW
!          EIGENVALUES
!          &EACH
!              QS_SCF 0
!          &END EACH
!       &END MO
       &MO_CUBES
        NHOMO 1
!       NLUMO 1
        WRITE_CUBE F
         &EACH
          MD 50
         &END EACH
       &END MO_CUBES
!       &TOT_DENSITY_CUBE
!       &END
    &END PRINT
    &XC
          ! functional part
      &XC_FUNCTIONAL
    &PBE
     PARAMETRIZATION REVPBE
            &END PBE
              &END XC_FUNCTIONAL
      ! non-local vdW part
      &vdW_POTENTIAL
         DISPERSION_FUNCTIONAL NON_LOCAL
         &NON_LOCAL
           TYPE RVV10
           PARAMETERS  9.3  0.0093
           KERNEL_FILE_NAME  /usr/local/cp2k-6.1/data/rVV10_kernel_table.dat
           CUTOFF      400
         &END NON_LOCAL
      &END vdW_POTENTIAL
    &END XC
  &END DFT
  &SUBSYS
    &CELL
      ABC [angstrom] 24.548 12.071 47.500
    &END CELL
    &COORD
C 14.0598 6.5450685644 26.3409113979
Br 15.3647 6.3445303125 22.8588392375
Sn 16.4392 3.8253316595 23.4951667013
Br 19.1324 4.4621330825 23.7000870850
Br 16.838 3.6906426501 20.7643946380
Br 13.11 2.2748681376 22.7530189052
Sn 22.9281 3.7399798503 23.2207623676
Br 23.0635 3.8214751326 25.9745757929
Br 21.2734 1.6301648220 23.0129434293
Br 23.2291 3.3001284376 19.0465062454
Sn 23.1428 3.1980398912 16.1977704651
Br 20.6636 4.5007149468 16.2329260603
Br 18.2727 1.5281551862 15.7676073969
Sn 16.1839 3.2680743983 15.8951661436
Br 14.1537 1.6431133946 15.5555660659
Br 12.4705 5.3083586136 15.8694871074
Br 17.0595 4.1759284088 27.4823117985
Sn 16.8803 3.6407803725 30.3480230027
Br 15.673 1.1900612968 29.7629556020
Br 19.5723 2.9242042778 31.0881960292
Br 13.1671 4.3423977275 29.4798682773
Sn 22.8718 3.7845903712 29.9070573963
Br 23.2971 3.6590548244 32.7016074210
Br 22.1778 6.3338962725 30.2176905947
Sn 22.6637 3.3390471379 36.8338714424
Br 23.107 3.7591383528 39.4990411183
Br 21.6056 0.9546367557 37.4876945396
Br 19.1035 4.4225309473 38.0719032574
Sn 16.4603 3.8573374720 37.5774585698
Br 17.0573 3.4681956813 34.8879503631
Br 15.2475 6.3895705051 37.2721331054
Br 12.9383 2.8353942223 36.1971909042
Br 16.445 3.7809050927 41.8235644741
Sn 16.2506 3.5111427881 44.9775353335
Br 17.0805 1.0163787289 44.7098930654
Br 18.657 4.6381859761 45.1041706138
Br 12.4773 3.2623854609 43.1419490704
Sn 22.2333 3.3881159615 43.9071201827
Br 22.2169 6.0572106456 44.4737376698
Br 22.3419 6.9515915416 37.7153186445
Sn 21.7006 9.5298689973 37.3461065318
Br 21.1127 10.1151717965 40.0671681033
Br 18.8877 8.6796710336 37.0935755978
Br 13.2275 10.5706266674 37.4791878643
Sn 15.9992 9.7751385232 37.5429035679
Br 15.5733 9.2011967899 34.8136067906
Br 16.9658 0.3564503874 37.0543910125
Br 21.1298 9.2532361133 32.4790330344
Sn 21.8849 9.9875431373 30.0898665693
Br 22.3897 0.4798679437 31.2582172636
Br 19.4047 10.6272037359 29.2013672240
Br 13.253 8.9157457212 30.6959671950
Sn 15.9179 9.7510710283 30.0611414520
Br 16.7578 7.1751375815 29.9697139815
Br 15.5048 9.8537294861 27.3283133557
Sn 15.8413 9.9707444429 23.5243408315
Br 15.5442 9.6166848905 20.7839984046
Br 17.0967 0.2654519571 22.9287246066
Br 19.1128 9.4061564033 22.7232380413
Sn 21.8949 10.0442728298 23.2319260746
Br 21.3873 10.5212721575 25.9046793460
Br 22.3553 7.2385463111 23.4349656051
Br 13.1238 10.2813378010 24.2646944352
Br 21.1672 9.3737449460 18.5359240521
Sn 21.5787 8.5311885518 15.6786011734
Br 23.3201 10.5637633195 15.3406316074
Br 19.429 10.0818756173 14.9604506249
Br 14.0247 9.6640046923 17.0858885023
Sn 16.4485 9.0150502070 16.4463079553
Br 16.0191 7.2065415493 14.6253053383
Br 14.4772 10.2985682753 41.9128610802
Sn 15.279 10.1617533399 44.4831687477
Br 17.7455 9.1756701189 44.0293453139
Br 21.148 12.4417182355 44.6100496915
Sn 23.0798 10.5317326165 44.3609705900
Br 24.5651 -0.1727058502 46.2031723253
Br 13.5757 8.0448176992 44.9456248925
N 19.0362 6.1806956609 20.1951989428
C 18.5376 6.6831477327 18.8720673315
C 20.4697 5.6134206106 20.2042499369
N 18.9715 6.2239282642 34.7555247223
C 18.2399 6.9375842238 33.6350687072
C 20.2295 5.5846264324 34.3645859369
N 18.9445 7.0453757669 40.3879586418
C 19.6922 5.9314014729 41.0473824897
C 17.588 7.3832200825 41.0661063269
N 19.5846 7.4158405003 25.7401884626
C 20.3253 7.0567165430 26.9929408593
C 18.2599 8.0401836623 25.8550031934
N 19.6293 0.1555620890 18.7168796479
C 18.2316 11.7283250689 19.2554527482
N 19.644 0.0687919282 33.3159872521
C 18.198 11.8341094024 33.5066884743
N 18.7881 1.5768087292 27.4768371807
C 20.2361 2.0220228215 27.6548571272
N 18.5478 1.4064428191 41.6747085334
C 19.7702 1.6497528473 40.8101345065
N 12.8659 6.4514574683 33.1910584882
C 14.0826 5.5970848016 33.3350656512
N 13.2088 6.6467442869 18.9672269076
C 14.198 5.5983322521 19.3106832941
N 12.6217 6.3560235444 41.9582780556
C 24.1442 7.4127163855 41.3180145071
N 13.1462 7.0870257459 27.3350710201
C 24.0238 7.3749734218 26.8772811738
C 24.6567 11.8200649290 33.6971817154
N 13.7474 0.1404524633 34.1782060744
C 24.454 11.3595211466 19.9683306504
N 13.4448 -0.0773412113 20.2924691893
C 14.1634 1.6179208222 39.9093955274
N 12.8945 1.0718309973 39.3197444232
C 13.9675 1.7475873914 26.5508485245
N 12.6087 1.1166358405 26.3816012023
C 20.4289 0.4486267266 34.5226517531
C 20.3791 1.0575702520 19.6710568838
C 24.3498 7.0751818068 19.9186485921
C 24.7274 7.1616304790 34.4337115183
C 18.5051 0.9238340842 26.2007835070
C 17.7094 0.2415704328 41.3015928944
C 14.0722 6.3479285731 41.4289078520
C 14.0255 0.6987615970 19.1493003414
C 14.7342 0.5730644926 33.0764268358
C 24.3374 0.6152758101 27.6816769683
C 24.3615 0.3543919476 40.3000273130
H 18.305 5.6256591907 35.1938285792
H 13.7137 7.8914374319 27.6858360310
H 24.2868 1.8011000090 25.9648204871
H 20.0866 11.2497210689 32.9453253778
H 20.1392 8.0206916169 25.1376939598
H 24.2772 6.0176427769 32.8710647626
H 14.3082 11.4492519331 34.7172821437
H 18.1894 2.3801910719 27.4677087273
H 19.1615 6.9428925302 35.4666322273
H 13.1325 6.4145085531 28.1499394427
H 12.6453 0.3212279664 25.7160942812
H 19.7795 0.6822538308 32.5076027885
H 19.4863 6.5944224695 25.1422544543
H 12.9184 7.1932571935 32.4319618258
H 13.5567 0.9138276177 34.8891198884
H 18.5793 0.9583169044 28.2551896578
H 17.3372 7.4950841757 33.9595533963
H 13.5139 5.8978986790 25.6164404645
H 23.6483 -0.2661706405 27.4877227839
H 21.3219 1.0596315219 34.2837834637
H 20.5096 7.9424443198 27.6088694848
H 23.7627 7.5417403224 34.1614001511
H 15.6537 0.2210341877 33.3132439050
H 17.6608 0.3459248752 26.4026489631
H 17.8929 6.2804981296 32.7864513250
H 14.9535 6.0659103951 26.9247251023
H 23.7692 1.4072191899 28.2556348660
H 20.77 -0.4654087653 35.1397002898
H 19.5287 6.4578439501 27.4691248410
H 24.7186 6.5033757517 35.2670653745
H 14.3074 0.1149699723 32.1509043986
H 18.2784 1.7307225736 25.4744745260
H 18.9427 7.6708249793 33.1893125298
H 14.551 7.3904373024 25.7738768521
H 12.9418 12.3592521503 28.3203341153
H 19.745 1.0233556345 35.1587845070
H 21.1834 6.4688991128 26.7363136826
H 13.1018 8.0404647751 34.7632041019
H 14.6542 1.6292499553 33.1974065376
H 19.2968 12.3162104796 25.8531508460
H 20.129 4.7681648574 33.6083616097
H 23.9275 8.1637079483 26.2096488240
H 13.8494 2.5112349477 27.3251159034
H 17.9408 10.9951843549 34.1091748631
H 18.2858 8.9653816003 26.4622899692
H 13.8551 4.8006071031 34.1630813133
H 24.6107 10.9964408918 32.9883104125
H 20.7124 1.7046990370 26.7359940703
H 20.7155 5.2959801252 35.2935705635
H 23.5611 7.6329714045 27.8580965837
H 14.1608 2.1416149104 25.5426696886
H 17.568 11.7493145890 32.5600710262
H 17.8023 8.3659795073 24.9217740320
H 14.3553 5.0345834650 32.3994145718
H 24.0883 11.5910095492 34.5942683808
H 20.2438 3.0900602284 27.7951178246
H 20.8605 6.4091006949 34.0019215227
H 23.6086 6.4390169505 26.6148858281
H 14.6844 0.9596680107 26.8634891241
H 17.8801 0.6939055118 34.0096592409
H 17.5873 7.4097883145 26.3934547456
H 14.8668 6.2797961119 33.7471048738
H 24.0964 0.5994088780 33.2507446733
H 20.7511 1.4910767966 28.4536696592
H 18.3626 5.4645724136 20.5091363815
H 20.2352 11.3777228286 18.4544486144
H 25.0922 6.2238397995 18.0778532907
H 14.1454 11.2096782117 20.5085431398
H 18.9917 6.8672170198 20.9708260863
H 19.4901 0.7019046452 17.8303328195
H 13.5856 7.5149935928 18.5730034906
H 13.2155 0.6125890452 21.0862121481
H 17.4271 6.5032169744 18.8363657848
H 21.4756 0.9305068491 19.3996430873
H 23.9633 8.0083387186 19.5670389554
H 14.9159 1.2718293585 19.5338563588
H 19.0262 6.2212417273 18.1042946360
H 20.0666 0.6555949744 20.6944088708
H 23.5435 6.3050393438 19.9490015939
H 14.3408 0.0831775013 18.3558035341
H 18.7703 7.7588982508 18.7591188147
H 20.0296 2.1314772637 19.5011396326
H 12.3461 7.4400849374 20.9113264157
H 13.2829 1.3157118517 18.6607364382
H 20.5572 4.8561432784 19.4170691712
H 18.5184 11.1032522108 20.0626485754
H 13.5863 4.7158000839 19.5030353879
H 24.45 10.6460526901 19.1007888784
H 20.5642 4.9885002141 21.1304588406
H 17.7966 11.1217049402 18.4829300694
H 14.6542 5.3619317410 18.2954040131
H 24.1243 10.7559594354 20.8257619697
H 21.1617 6.4086514027 20.1220785147
H 17.6506 0.4606725484 19.5351251929
H 14.8074 5.8989492811 20.1338739733
H 23.7048 0.0704952991 19.8459895716
H 12.5897 6.4184869629 43.0044504680
H 12.2425 1.8529008612 39.0434347521
H 19.6476 7.8279221386 40.3656550820
H 17.839 2.1971641877 41.5788390304
H 12.261 5.3287515110 41.8116874383
H 13.0151 0.6123938996 38.4196296725
H 18.719 6.7342522843 39.4021851231
H 18.7879 1.2577667481 42.6717170691
H 14.4332 5.3131237118 41.5570561029
H 23.492 0.0469143227 39.7110537914
H 20.5175 5.5671711948 40.5309217606
H 16.8219 12.2332487040 41.9388396731
H 14.6448 7.1209942188 41.9737786688
H 23.9673 1.1578725945 41.0104837242
H 20.1232 6.4709369796 41.9642970844
H 17.566 0.3237803898 40.2053144780
H 14.0923 6.5861299415 40.3646849755
H 12.5857 11.6475105577 40.7440102686
H 19.0358 5.1639727410 41.3713117631
H 18.3693 11.4349001063 41.5412022014
H 12.0304 8.4304295941 41.7409129697
H 14.5086 0.8169135808 40.6313552245
H 17.5657 8.3715388148 41.6435326219
H 19.5052 1.8879257747 39.7661132897
H 23.0373 7.0947560996 41.1717119926
H 13.9436 2.5645102705 40.4823251200
H 16.7795 7.5280420991 40.2797543799
H 20.1825 2.6412097123 41.1132948778
H 24.5279 7.3531374780 40.3011033124
H 14.98 1.6874583855 39.2112961952
H 17.3211 6.4637881949 41.6953672262
H 20.4349 0.7612580134 40.7903477849
O 16.866 3.1585071240 47.7544503667
H 17.525 3.8851535291 47.7546310577
H 17.3983 2.3465359200 47.9086207218
O 17.6762 10.3604277601 47.1201628141
H 17.8995 10.2475010845 46.1855430620
H 18.0384 11.3199641896 47.2443304531
O 22.0963 9.5244757080 46.1606182088
H 22.7172 9.0693989841 46.8080885049
H 21.2893 8.8543303918 46.4019557825
O 23.3571 3.2106683018 46.0108497042
H 22.5974 3.4435103639 46.7452168937
H 23.5817 2.2870623095 46.1018682841
O 22.3702 1.5224810412 13.7629401278
H 10.8904 1.2658977484 13.2056058053
H 22.2312 0.6425513166 14.2512689984
O 21.4346 7.5205815498 13.2511874827
H 21.8748 6.6903236763 12.9356464063
H 21.1873 7.9966791815 12.4402857294
O 16.2539 11.1162958237 15.1044229012
H 17.0245 11.6881281530 14.8814645727
H 15.4906 11.7131731342 15.2464665472
O 16.6789 3.8334335666 13.7456418653
H 17.6316 3.7094363480 13.3242436244
H 16.1654 4.3028660362 13.0936293789
O 16.5131 7.3433202847 7.1714140143
O 22.8237 2.1783739118 6.0092653318
O 15.5293 3.2567417600 5.3394082948
O 22.4657 12.3112709869 9.3221641853
O 20.6046 4.2602822068 5.7926579100
O 19.4848 2.2163934928 4.3709930146
O 14.5461 7.9255643837 0.6162015789
O 21.1138 8.2213769848 10.7781820188
O 16.9406 11.5981419723 2.6753280469
O 13.272 2.9038958980 7.2995716538
O 14.8512 6.9216633919 9.7595794006
O 14.0983 10.2978434463 2.1393249775
O 12.8463 5.3945162995 8.6185538110
O 17.0651 4.3776938366 9.5009241605
O 15.1095 9.6637269829 4.6661961472
O 12.0053 1.1325491320 4.1411365792
O 14.6973 6.9422810656 4.9231030538
O 22.0013 3.6527600260 0.6043926108
O 13.8474 12.0512887506 5.7315134582
O 21.1984 11.0169429713 1.0894101428
O 20.9979 2.4999283942 11.3111057561
O 16.1938 4.2686378502 2.8398640448
O 16.6153 0.9390212833 11.1877117944
O 18.6019 6.6240338984 9.3250504695
O 18.3675 0.9106571653 0.8079511977
O 13.7682 1.8802240851 1.6927080557
O 17.2578 7.9752141054 11.4704294203
O 17.6502 7.7697448287 0.5459768049
O 17.4143 1.6564650929 8.6046039216
O 13.7256 9.6362498594 10.2429504086
O 14.0037 1.9730059373 11.0678864702
O 22.1975 8.0529694896 3.2629079087
O 14.0093 5.6698537924 2.3384806505
O 23.2311 6.2772335952 10.0782327574
O 21.1117 1.4428690465 2.3131654805
O 16.6716 9.8570942901 7.2119300981
O 22.5183 4.7940204525 12.3248376469
O 19.8411 8.0259544474 4.6531978831
O 18.2494 6.2508103381 3.4668104477
O 20.3648 2.3292735297 8.6222596706
O 16.6541 0.7500997160 4.8984235326
O 21.0194 11.9257568703 5.8258299570
O 23.4638 10.5387920996 2.7354204263
O 19.7442 4.3087189600 1.8883501490
O 23.1605 10.9261295001 6.9748022455
O 18.4111 3.1877377544 11.7622150650
O 18.2123 10.6365900709 11.6623737193
O 24.0764 0.4181510405 11.6809965154
O 23.4157 7.8351285164 0.6124506173
O 19.2844 10.6655707810 7.5045150842
O 21.0095 5.1621882889 8.5718232908
O 20.2765 10.6942400879 10.0859708858
O 12.9419 4.1033626634 12.5641387279
O 19.8608 7.9391251576 7.2585465496
O 11.9276 3.7359066574 2.2000628063
O 22.7457 8.4271325077 6.5278494006
O 19.5346 10.7697327039 3.3716301679
O 15.3133 5.0181074945 11.4959048420
O 13.8629 12.0686131343 8.4112490446
O 22.8184 4.6913074317 4.4638761072
O 24.1781 9.2138948542 12.4992567321
O 17.9626 4.9535121312 5.8829328174
O 24.6484 6.3406848334 6.1280201408
O 20.5091 7.4474801217 -0.0823991885
H 16.0284 6.9198549326 6.4395241675
H 17.1827 6.7491758135 7.6074970070
H 23.3113 1.6614532833 5.1312638866
H 22.1362 1.5981277914 6.3649712422
H 14.8475 3.3094102048 6.0832954416
H 16.0361 2.3249796193 5.2382688041
H 23.1341 12.3918723531 10.0952091898
H 22.8776 11.7713604673 8.6568620733
H 21.0785 4.7763049217 5.1378522599
H 20.6315 3.3088813016 5.4695326827
H 18.7535 1.6594470951 4.6160785467
H 20.0718 1.6908518371 3.8013846568
H 14.1357 7.9473590252 -0.2020020632
H 15.5046 7.7642607578 0.4835754362
H 21.0029 9.2098838397 10.4807475673
H 21.9754 7.7622139068 10.4076415238
H 17.635 10.9104034159 2.9407057509
H 16.2121 11.2147764244 2.1040357060
H 13.1012 3.5797622431 7.9403897721
H 12.3063 2.6484091896 7.0622499514
H 15.0432 6.3271312574 10.5499997209
H 15.6097 6.7791944109 9.1238931223
H 14.4807 10.0700664131 3.0313228916
H 14.377 9.5456581503 1.5557737993
H 12.5104 5.7291700946 7.7012383056
H 13.6084 6.0251013901 8.7462256799
H 17.6652 3.9049340382 10.1212627059
H 17.0606 3.8000501969 8.7762046327
H 15.9062 9.8082633299 5.2541452831
H 15.1287 8.6923585004 4.4693253591
H 12.8039 0.9029669493 4.7965265622
H 11.6369 0.2157997457 3.8710671427
H 14.4181 6.5093841434 4.0845614634
H 13.8853 6.7443886624 5.5247681267
H 21.0886 3.8526478789 0.9370347466
H 22.7179 3.9622949633 1.3031505605
H 13.657 12.1498848824 6.6908469711
H 14.0662 11.0761173182 5.5906676810
H 22.1875 10.9032120077 1.3385496178
H 21.2205 10.9095469426 0.1614176424
H 21.2581 1.6722729340 11.7090457082
H 20.7932 2.2918872258 10.3201212614
H 16.0483 3.6118621579 2.1679651999
H 15.6369 3.9199809920 3.6028388019
H 16.8179 1.2415813201 10.2547001379
H 16.9642 12.0971401699 11.2967298446
H 18.655 7.1293513290 10.1794604364
H 17.9481 5.8725522086 9.4537720559
H 19.3028 1.1279193891 1.0802373435
H 17.9033 0.5858427949 1.6328481319
H 13.8395 1.0952390735 1.0797930590
H 13.5571 1.5504927027 2.5827072164
H 17.4739 7.7698687204 12.4048898372
H 16.2785 7.9551349187 11.5157614025
H 17.8135 7.7714765815 1.5268294050
H 17.6219 8.7372306603 0.2124871605
H 18.394 1.9428073404 8.5779343117
H 17.2885 1.0611760630 7.8501651623
H 13.9076 8.7071944103 9.9527115714
H 13.1878 9.5886652602 11.1105163682
H 14.9056 1.8822734492 11.5117883713
H 13.6188 2.8421228194 11.5071077664
H 22.7613 7.5888202832 3.8848446592
H 21.3521 8.0152635942 3.7171871423
H 14.8396 5.1721101600 2.3139726925
H 14.0536 6.4876567281 1.7452471058
H 22.5041 5.9579589853 9.4449803023
H 24.0474 6.0507613285 9.5824393270
H 21.9054 1.9233638901 1.9783558474
H 21.247 0.5814247633 1.8505196564
H 16.6535 8.7917270820 7.0371976342
H 16.2495 9.9434844699 8.1726434226
H 22.8053 5.2697701576 11.5232235690
H 19.7642 7.8929729618 5.6225981125
H 19.1674 7.4394985996 4.2474110209
H 18.3174 5.8123916981 4.3008275337
H 17.5155 5.8364140176 3.0501020777
H 20.945 1.6538899393 8.2177970487
H 20.6948 3.2781753865 8.4569604576
H 15.8272 0.3747843896 5.2946661482
H 16.8173 0.1959913561 4.0623522477
H 20.4329 11.3595407361 6.3794419028
H 20.5963 11.8918125471 4.9147813627
H 12.1398 10.3620923888 2.2625302087
H 23.1805 9.5998388766 2.9390165325
H 19.5607 3.8822117265 2.7519753125
H 19.695 5.2521300155 1.8838807744
H 22.5298 11.4225683595 6.3206628628
H 24.0328 11.3038014028 6.7809060935
H 17.8812 2.2826619835 11.8011524389
H 19.3665 2.9393577423 11.6606963354
H 18.1513 9.7025801865 11.3795923946
H 18.548 10.6238841311 12.5871184966
H 24.9246 0.8606196150 11.3946271929
H 24.3895 -0.4689518192 11.9993475348
H 22.8135 7.3576899780 1.2185314204
H 23.7197 8.4926652834 1.2681022317
H 18.2934 10.5278641625 7.6035591213
H 19.6149 10.5672058164 8.4706255809
H 20.8344 5.2752410488 7.6269035786
H 20.2385 5.7069829759 8.9528464987
H 19.5164 10.9499561041 10.7438414680
H 20.9692 11.4043505551 9.9780018220
H 11.9189 4.2795366420 12.4565095286
H 19.5362 8.8863022375 7.2712561626
H 19.414 7.3588925675 7.9521482466
H 24.7447 2.9227240735 1.9909832416
H 12.395 4.5763919399 2.0443781088
H 21.8969 8.2266772230 6.9393905438
H 23.0507 9.3412419591 6.7272976980
H 19.5769 9.8797136584 3.7840638056
H 20.0428 10.6874130255 2.5132504337
H 15.4736 4.3961675983 10.7474752816
H 14.4103 4.8167720312 11.9248943476
H 13.577 11.4060111873 9.1466043275
H 13.6974 12.9240226554 8.8536273227
H 23.3172 4.3291275678 3.6893362466
H 22.7146 3.9867037271 5.1730978384
H 24.1823 8.5225110157 13.1905178622
H 23.7172 8.7051486366 11.8224965159
H 17.3294 4.2458933534 5.7662265655
H 18.8249 4.5271923527 5.7936808649
H 24.3767 5.7119263167 5.4696311275
H 23.9066 7.0703740920 6.1404305099
H 20.6197 6.9412255347 -0.9339865706
H 19.5548 7.4776435953 0.0326720518
H 22.0304 3.9713259728 12.1560119097
H 13.0186 4.1540937659 13.4932685747
 C         1.785839        6.545069       26.340912
 Br        3.090750        6.344530       22.858839
 Sn        4.165203        3.825332       23.495167
 Br        6.858446        4.462133       23.700087
 Br        4.563967        3.690643       20.764395
 Br        0.835979        2.274868       22.753019
 Sn       10.654133        3.739980       23.220762
 Br       10.789465        3.821475       25.974575
 Br        8.999448        1.630165       23.012943
 Br       10.955139        3.300128       19.046507
 Sn       10.868811        3.198040       16.197771
 Br        8.389649        4.500715       16.232925
 Br        5.998689        1.528155       15.767608
 Sn        3.909891        3.268075       15.895166
 Br        1.879679        1.643113       15.555566
 Br        0.196504        5.308359       15.869487
 Br        4.785521        4.175929       27.482311
 Sn        4.606306        3.640780       30.348022
 Br        3.399038        1.190061       29.762955
 Br        7.298256        2.924204       31.088196
 Br        0.893081        4.342398       29.479868
 Sn       10.597809        3.784590       29.907057
 Br       11.023065        3.659055       32.701607
 Br        9.903791        6.333896       30.217691
 Sn       10.389658        3.339047       36.833870
 Br       10.832972        3.759138       39.499043
 Br        9.331584        0.954637       37.487694
 Br        6.829514        4.422531       38.071903
 Sn        4.186256        3.857337       37.577457
 Br        4.783294        3.468196       34.887951
 Br        2.973519        6.389571       37.272133
 Br        0.664296        2.835394       36.197189
 Br        4.171031        3.780905       41.823563
 Sn        3.976638        3.511143       44.977535
 Br        4.806499        1.016379       44.709892
 Br        6.382966        4.638186       45.104172
 Br        0.203261        3.262385       43.141949
 Sn        9.959304        3.388116       43.907120
 Br        9.942856        6.057210       44.473736
 Br       10.067934        6.951591       37.715317
 Sn        9.426632        9.529869       37.346107
 Br        8.838747       10.115171       40.067169
 Br        6.613678        8.679671       37.093575
 Br        0.953501       10.570626       37.479187
 Sn        3.725200        9.775139       37.542904
 Br        3.299316        9.201197       34.813606
 Br        4.691802        0.356450       37.054390
 Br        8.855830        9.253236       32.479034
 Sn        9.610936        9.987543       30.089867
 Br       10.115701        0.479868       31.258217
 Br        7.130669       10.627204       29.201366
 Br        0.979034        8.915746       30.695967
 Sn        3.643937        9.751071       30.061142
 Br        4.483757        7.175138       29.969713
 Br        3.230758        9.853729       27.328314
 Sn        3.567296        9.970744       23.524342
 Br        3.270247        9.616685       20.783998
 Br        4.822673        0.265452       22.928724
 Br        6.838809        9.406157       22.723238
 Sn        9.620854       10.044272       23.231926
 Br        9.113308       10.521272       25.904680
 Br       10.081344        7.238546       23.434965
 Br        0.849822       10.281338       24.264694
 Br        8.893164        9.373745       18.535925
 Sn        7.709872        8.777608       16.214981
 Br       11.046083       10.563764       15.340631
 Br        6.239616        9.715936       13.840585
 Br        1.750674        9.664004       17.085888
 Sn        4.715101        8.724142       16.248238
 Br        3.499217        6.584839       15.126464
 Br        2.203188       10.298569       41.912861
 Sn        3.005021       10.161754       44.483170
 Br        5.471529        9.175670       44.029346
 Br        8.874043       12.441718       44.610050
 Sn       10.805780       10.531733       44.360970
 Br       12.291112       -0.172706       46.203171
 Br        1.301722        8.044818       44.945625
 N         6.762220        6.180696       20.195198
 C         6.263603        6.683148       18.872066
 C         8.195669        5.613420       20.204250
 N         6.697520        6.223928       34.755524
 C         5.965878        6.937584       33.635067
 C         7.955506        5.584626       34.364586
 N         6.670528        7.045376       40.387959
 C         7.418155        5.931401       41.047382
 C         5.314040        7.383220       41.066105
 N         7.310563        7.415841       25.740189
 C         8.051276        7.056716       26.992941
 C         5.985945        8.040184       25.855003
 N         7.355317        0.155562       18.716879
 C         5.957602       11.728325       19.255453
 N         7.369978        0.068792       33.315987
 C         5.924008       11.834109       33.506687
 N         6.514117        1.576809       27.476837
 C         7.962090        2.022023       27.654858
 N         6.273819        1.406443       41.674709
 C         7.496192        1.649753       40.810135
 N         0.591913        6.451458       33.191059
 C         1.808595        5.597085       33.335064
 N         0.934830        6.646744       18.967226
 C         1.923999        5.598332       19.310684
 N         0.347681        6.356023       41.958279
 C        11.870220        7.412716       41.318016
 N         0.872231        7.087026       27.335072
 C        11.749804        7.374973       26.877281
 C        12.382703       11.820065       33.697182
 N         1.473388        0.140452       34.178207
 C        12.180007       11.359521       19.968330
 N         1.170760       -0.077341       20.292469
 C         1.889445        1.617921       39.909397
 N         0.620455        1.071831       39.319744
 C         1.693526        1.747587       26.550848
 N         0.334703        1.116636       26.381601
 C         8.154900        0.448627       34.522652
 C         8.105092        1.057570       19.671057
 C        12.075784        7.075182       19.918648
 C        12.453439        7.161631       34.433712
 C         6.231071        0.923834       26.200783
 C         5.435408        0.241570       41.301594
 C         1.798196        6.347929       41.428909
 C         1.751511        0.698762       19.149300
 C         2.460205        0.573065       33.076427
 C        12.063379        0.615276       27.681677
 C        12.087541        0.354392       40.300026
 H         6.030967        5.625659       35.193829
 H         1.439691        7.891438       27.685837
 H        12.012783        1.801100       25.964821
 H         7.812620       11.249722       32.945324
 H         7.865174        8.020692       25.137693
 H        12.003244        6.017643       32.871063
 H         2.034236       11.449252       34.717281
 H         5.915407        2.380191       27.467709
 H         6.887467        6.942893       35.466633
 H         0.858536        6.414508       28.149939
 H         0.371306        0.321228       25.716095
 H         7.505543        0.682254       32.507603
 H         7.212255        6.594422       25.142254
 H         0.644354        7.193257       32.431961
 H         1.282677        0.913828       34.889118
 H         6.305286        0.958317       28.255190
 H         5.063231        7.495084       33.959553
 H         1.239911        5.897899       25.616440
 H        11.374310       -0.266171       27.487722
 H         9.047878        1.059631       34.283783
 H         8.235566        7.942444       27.608870
 H        11.488680        7.541740       34.161400
 H         3.379695        0.221034       33.313244
 H         5.386837        0.345925       26.402649
 H         5.618931        6.280498       32.786449
 H         2.679540        6.065910       26.924725
 H        11.495217        1.407219       28.255634
 H         8.495978       -0.465409       35.139702
 H         7.254716        6.457844       27.469126
 H        12.444631        6.503376       35.267067
 H         2.033421        0.114970       32.150906
 H         6.004383        1.730723       25.474474
 H         6.668719        7.670825       33.189312
 H         2.276953        7.390437       25.773876
 H         0.667833       12.359252       28.320333
 H         7.471026        1.023356       35.158783
 H         8.909416        6.468899       26.736313
 H         0.827778        8.040464       34.763203
 H         2.380227        1.629250       33.197407
 H         7.022789       12.316211       25.853151
 H         7.855001        4.768165       33.608360
 H        11.653463        8.163708       26.209648
 H         1.575420        2.511235       27.325115
 H         5.666778       10.995184       34.109177
 H         6.011805        8.965382       26.462290
 H         1.581139        4.800607       34.163082
 H        12.336722       10.996441       32.988312
 H         8.438435        1.704699       26.735994
 H         8.441473        5.295980       35.293571
 H        11.287120        7.632971       27.858097
 H         1.886817        2.141615       25.542669
 H         5.293980       11.749314       32.560070
 H         5.528331        8.365979       24.921774
 H         2.081344        5.034584       32.399414
 H        11.814323       11.591009       34.594269
 H         7.969799        3.090060       27.795118
 H         8.586546        6.409101       34.001923
 H        11.334616        6.439017       26.614885
 H         2.410403        0.959668       26.863489
 H         5.606131        0.693906       34.009659
 H         5.313251        7.409788       26.393456
 H         2.592752        6.279796       33.747105
 H        11.822382        0.599409       33.250744
 H         8.477120        1.491077       28.453671
 H         6.088553        5.464572       20.509136
 H         7.961163       11.377723       18.454449
 H        12.818183        6.223840       18.077854
 H         1.871356       11.209679       20.508543
 H         6.717687        6.867217       20.970825
 H         7.216090        0.701905       17.830334