&EXT_RESTART
 RESTART_FILE_NAME /home/fambrosi/DMA/dynamics/2e-/H-/perov-md-1.restart
&END EXT_RESTART
&FORCE_EVAL
  METHOD         Quickstep
  STRESS_TENSOR  ANALYTICAL
  &PRINT
    &STRESS_TENSOR
    &END STRESS_TENSOR
  &END PRINT
  &DFT
            BASIS_SET_FILE_NAME /usr/local/cp2k-6.1/data/BASIS_MOLOPT
            POTENTIAL_FILE_NAME /usr/local/cp2k-6.1/data/GTH_POTENTIALS
            BASIS_SET_FILE_NAME /usr/local/cp2k-6.1/data/BASIS_ADMM_MOLOPT
            BASIS_SET_FILE_NAME /usr/local/cp2k-6.1/data/BASIS_ADMM
            WFN_RESTART_FILE_NAME el-RESTART.wfn
    CHARGE -2
    &MGRID
      CUTOFF       800
      REL_CUTOFF    50
    &END MGRID
    &QS
    &END QS
    &SCF
      SCF_GUESS  RESTART
      MAX_SCF    50
      &OT
        MINIMIZER       DIIS
        PRECONDITIONER  FULL_SINGLE_INVERSE
      &END
      &OUTER_SCF
        MAX_SCF  50
      &END
      &PRINT
        &RESTART OFF
        &END
      &END
    &END SCF
    &PRINT
!       &MO LOW
!          EIGENVALUES
!          &EACH
!              QS_SCF 0
!          &END EACH
!       &END MO
       &MO_CUBES
        NHOMO 1
!       NLUMO 1
        WRITE_CUBE F
         &EACH
          MD 50
         &END EACH
       &END MO_CUBES
!       &TOT_DENSITY_CUBE
!       &END
    &END PRINT
    &XC
          ! functional part
      &XC_FUNCTIONAL
    &PBE
     PARAMETRIZATION REVPBE
            &END PBE
              &END XC_FUNCTIONAL
      ! non-local vdW part
      &vdW_POTENTIAL
         DISPERSION_FUNCTIONAL NON_LOCAL
         &NON_LOCAL
           TYPE RVV10
           PARAMETERS  9.3  0.0093
           KERNEL_FILE_NAME  /usr/local/cp2k-6.1/data/rVV10_kernel_table.dat
           CUTOFF      400
         &END NON_LOCAL
      &END vdW_POTENTIAL
    &END XC
  &END DFT
  &SUBSYS
    &CELL
      ABC [angstrom] 12.274 12.071 47.500
    &END CELL
    &COORD
 C         0.983376        4.327609       26.689449
 Br        2.145679        5.810104       23.358143
 Sn        3.560118        3.328396       23.330666
 Br        5.965101        4.432679       23.572704
 Br        3.825012        3.141312       20.631496
 Br       -0.331899        2.337488       22.783684
 Sn        9.343620        2.832958       23.127670
 Br        9.533657        2.753585       25.931671
 Br        8.393631        0.261568       22.813553
 Br       10.323698        2.987548       19.398182
 Sn        9.831861        3.372027       16.760509
 Br        7.128850        4.052463       17.158569
 Br        3.632360        0.775526       16.785908
 Sn        3.264243        3.530607       16.595715
 Br        0.664448        2.867188       15.840837
 Br       -1.662318        5.960216       16.929413
 Br        4.722453        2.953757       27.399162
 Sn        3.822660        2.922094       30.121628
 Br        3.714309        0.247192       29.922813
 Br        6.067967        3.383105       31.468430
 Br        0.185576        2.272420       30.397842
 Sn        9.885313        3.035910       30.735909
 Br       10.326988        3.261861       33.406818
 Br       10.541342        5.748225       30.012363
 Sn        9.919838        2.631321       37.028759
 Br       10.123482        3.177696       39.570995
 Br        9.328823       -0.046976       37.587818
 Br        6.641382        3.002579       38.676472
 Sn        4.025273        2.865867       37.802433
 Br        4.248954        2.809683       35.088062
 Br        4.057196        5.633527       37.562710
 Br        0.304002        2.273591       37.201336
 Br        3.082962        3.485242       41.434254
 Sn        3.133585        3.278993       44.378071
 Br        4.607127        0.953665       44.475651
 Br        5.421520        4.578973       45.104084
 Br       -0.294033        2.645403       43.218105
 Sn       10.072351        2.700744       45.131672
 Br        9.615841        5.291174       44.623631
 Br       11.393505        6.269559       37.533543
 Sn        9.657862        8.846039       37.665951
 Br        9.594393        8.900757       40.342976
 Br        6.930282        8.662172       37.531574
 Br        0.637304       10.194656       37.351894
 Sn        3.113642        9.193007       37.618488
 Br        3.163732        8.880497       34.755329
 Br        4.509437       -0.680496       37.896641
 Br        8.968851        8.426472       33.813793
 Sn        9.203876        8.735977       31.137798
 Br        9.185385       -0.512127       31.326492
 Br        6.494441        8.937353       30.928936
 Br        0.441619        9.966747       31.087513
 Sn        2.934402        8.672421       30.659634
 Br        2.315235        5.970452       30.389759
 Br        2.850056        9.221460       28.027607
 Sn        2.477051        9.233221       23.935135
 Br        2.673656        8.873344       21.217804
 Br        3.303336       -0.292800       23.533249
 Br        6.254277        8.468758       23.640816
 Sn        8.774551        8.824827       24.594799
 Br        8.390373        8.978718       27.327019
 Br        9.528828        6.221984       24.867134
 Br       -0.390038        9.626869       23.452946
 Br        8.847744        8.956253       19.034870
 Sn        8.156380        8.016237       16.341133
 Br        9.337410        9.879295       14.512542
 Br        6.002098        9.717810       16.401085
 Br        0.434239        9.527548       17.171406
 Sn        3.022760        9.198132       16.889683
 Br        2.864693        6.616748       15.943949
 Br        3.188144       10.298670       42.056973
 Sn        3.707049        9.788107       44.672977
 Br        6.313779        8.982590       44.162884
 Br        9.039831       11.182766       45.869694
 Sn       10.850264        9.253325       45.329578
 Br       12.677658       -1.697715       46.886402
 Br        2.332036        7.310654       44.191898
 N         6.556718        5.279629       19.994926
 C         5.706430        6.491482       20.110786
 C         7.854608        5.404545       20.856445
 N         6.133888        6.162478       35.147434
 C         5.911500        6.361192       33.719219
 C         7.351562        5.372459       35.617229
 N         5.941791        6.408791       42.092426
 C         7.079744        5.522253       41.766705
 C         5.269258        7.153986       40.915348
 N         6.292950        5.636888       26.837986
 C         7.518551        5.230062       27.666237
 C         5.551292        6.727784       27.541367
 N         7.123099       -0.606986       19.921001
 C         5.809038       11.328430       20.609283
 N         6.705157        0.294933       33.349224
 C         5.417843       11.564465       33.480389
 N         6.333247       -0.407676       27.866276
 C         7.407369        0.629873       28.146297
 N         6.231574        0.608292       41.386608
 C         6.956930        1.597684       42.236553
 N         1.038227        6.475287       33.655323
 C         1.195815        5.384280       34.665142
 N        -0.082596        6.380728       19.779812
 C         0.770300        5.190264       19.901634
 N         0.201383        5.469543       40.780613
 C        13.435228        6.632780       40.409901
 N         0.310489        5.384060       26.012562
 C        12.968922        6.757560       26.409595
 C        11.535805       11.456692       34.316471
 N         0.466648        0.143006       34.747463
 C        12.088793       11.908010       20.368847
 N         1.240195       -0.158651       20.771843
 C         1.624619        0.499991       40.097752
 N         0.114466        0.460808       40.194233
 C         0.830960        1.048467       26.919422
 N         0.253438       -0.199702       27.547924
 C         7.249503        0.567523       34.660938
 C         7.403942        0.607726       19.140190
 C        11.658863        7.240932       20.920486
 C        11.879982        6.868875       33.526508
 C         5.732024       -0.353717       26.469158
 C         7.062808       -0.524772       40.950985
 C        -0.906233        5.969049       41.600063
 C         2.290441        0.116234       19.781940
 C         1.407595        0.390132       33.626415
 C        11.386972       -0.832451       26.764999
 C        11.870525       -0.308510       41.388241
 H         5.356852        5.694613       35.618801
 H        -0.714434        5.370857       25.956577
 H        13.258909       -0.936787       27.656689
 H         7.496845       11.822233       32.783634
 H         6.474069        5.847912       25.824162
 H        13.659622        6.179175       32.739346
 H         0.931102       11.635910       35.507610
 H         5.507770       -0.261531       28.556736
 H         6.383874        7.030905       35.583073
 H         0.738276        5.254871       25.040760
 H         0.083491       -0.110872       28.609009
 H         6.343301        1.169880       32.802616
 H         5.619996        4.865758       26.824757
 H         1.583646        7.362067       33.899570
 H         0.252682        1.087197       35.198627
 H         6.769328       -1.382167       27.954487
 H         5.493324        7.370051       33.647167
 H         0.446967        4.215526       27.640892
 H        10.958210       -1.691897       27.333412
 H         7.508508       -0.445098       35.034847
 H         8.130192        4.636083       26.979366
 H        11.293760        6.072099       33.176052
 H         1.627169       -0.509322       33.066891
 H         6.253794       -1.132378       25.861713
 H         5.192323        5.623269       33.401829
 H         2.016572        4.440275       26.947582
 H        11.810627       -1.108511       25.795174
 H         6.410847        0.941664       35.270908
 H         8.006575        6.140828       28.004879
 H        11.543007        7.276152       34.469166
 H         0.930934        1.051477       32.961926
 H         4.643343       -0.612442       26.451538
 H         6.860428        6.198616       33.227665
 H         0.809820        3.451446       26.142414
 H        -1.690068       11.963221       26.627163
 H         8.141993        1.269099       34.697285
 H         7.244655        4.659730       28.535809
 H        -0.527439        7.718087       32.842907
 H         2.226387        0.875171       34.150700
 H         5.843222       12.684847       26.032646
 H         7.200501        4.332842       35.349751
 H        12.530672        7.474498       25.715347
 H         1.892900        1.250023       27.206303
 H         4.694643       12.078157       34.130878
 H         4.586040        6.918591       26.957939
 H         1.003017        5.980710       35.577496
 H        12.000544       10.685547       33.687672
 H         8.286848        0.161702       27.636711
 H         7.551604        5.533419       36.705868
 H        14.082394        6.819793       26.554043
 H         0.102066        1.840091       27.201408
 H         5.636813       10.481253       33.898373
 H         5.241343        6.410997       28.563450
 H         0.475304        4.579591       34.555744
 H        10.972353       10.963223       35.160503
 H         7.209466        1.577508       27.606422
 H         8.155165        5.776973       34.980656
 H        12.553221        6.961637       27.394314
 H         0.866572        0.827651       25.797470
 H         5.028726       -0.675337       32.438076
 H         6.115077        7.650180       27.554268
 H         2.203619        4.837787       34.637287
 H        10.841932       -0.035736       33.710308
 H         7.564877        0.701905       29.200329
 H         6.901564        5.075458       19.007732
 H         7.881275       11.434778       20.603779
 H        11.431625        6.220602       19.088627
 H         1.534526       10.997362       21.144985
 H         5.832269        4.486896       20.259598
 H         7.407623       -1.424107       19.318687
 H         0.446783        7.108141       19.230042
 H         1.372167        0.457417       21.590206
 H         5.660785        6.829044       21.224838
 H         8.393711        0.461430       18.793816
 H        11.368258        8.216803       20.496677
 H         3.253755        0.205355       20.258129
 H         4.789543        6.057713       19.849472
 H         7.265942        1.491009       19.635044
 H        10.762730        6.903019       21.378136
 H         2.382949       -0.781816       19.093990
 H         6.107942        7.283705       19.419975
 H         6.655982        0.675446       18.359901
 H         0.160766        7.283340       21.699738
 H         2.025276        1.132032       19.308025
 H         8.398184        6.323848       20.603554
 H         5.116513       10.986017       19.786045
 H         0.203795        4.374370       20.492542
 H        11.752617       12.743275       19.775131
 H         8.505741        4.619834       20.639824
 H         5.488903       12.337923       21.006096
 H         0.972480        4.928310       18.874016
 H        11.930780       11.046751       19.628304
 H         7.422276        5.515989       21.898071
 H         5.924692       -1.416749       21.401012
 H         1.678116        5.437140       20.472466
 H        11.447206       -0.180021       21.263165
 H        -0.179284        5.122767       39.823925
 H        -0.291378        1.420877       40.003223
 H         5.123398        5.883435       42.464916
 H         5.980697        1.119262       40.582302
 H         0.727810        4.699520       41.321423
 H        -0.049309       -0.123099       39.323383
 H         6.016495        7.140862       42.915447
 H         5.350434        0.245833       41.861324
 H        -0.548938        6.002882       42.675106
 H        12.476530       -1.141985       41.643238
 H         6.639030        4.954325       40.962017
 H         7.464672       10.889164       41.733494
 H        -1.789024        5.343045       41.571438
 H        10.877565       -0.705448       41.124706
 H         7.909398        6.120955       41.245602
 H         6.416292       -1.172190       40.404011
 H        -1.177464        6.900958       41.093914
 H        -0.508684       12.561247       42.147396
 H         7.367270        4.993101       42.727962
 H         7.876909       11.926558       40.298153
 H         0.400280        7.466819       40.340870
 H         2.118012        0.965689       40.998631
 H         4.326777        7.641475       41.256618
 H         6.511732        1.347097       43.243130
 H        13.989916        6.399282       39.506634
 H         1.768152        1.074137       39.152630
 H         6.026595        7.870546       40.626621
 H         8.064053        1.398306       42.253300
 H        14.139723        6.749243       41.332951
 H         2.007806       -0.451420       40.023106
 H         5.064682        6.386279       40.146168
 H         6.725627        2.659115       41.955334
 O         5.378496        3.706783       48.272053
 H         5.042330        4.110585       47.461208
 H         5.293244        2.702107       48.180042
 O         5.212914        9.765139       48.062504
 H         6.059254        9.421255       47.667179
 H         5.413165       10.730383       48.093197
 O         9.922607        8.042860       47.260220
 H        10.601114        7.398160       47.703976
 H         9.134480        7.501287       46.981960
 O        11.738478        2.940563       46.666439
 H        11.445925        2.838856       47.627811
 H        12.623297        2.363540       46.604565
 O        10.137676        0.762594       12.758068
 H        -2.744534        0.240959       13.330112
 H        10.078741        1.677002       13.054679
 O         7.157904        6.240476       13.373738
 H         6.243027        6.603140       13.581207
 H         7.663272        7.016770       12.967360
 O         3.000205       10.082417       14.892003
 H         3.206014        9.548624       14.069666
 H         2.110933       10.453167       14.588110
 O         2.832178        5.433931        9.710186
 H         3.564657        3.298417       14.986948
 H         3.319138        5.324069       10.680307
 O         3.448670        5.115332        6.197141
 O         9.728285        1.227975        6.453145
 O         3.067272        1.083657        5.250387
 O         9.953979       10.559032       10.671157
 O         7.607118        4.966746        7.586070
 O         6.733645        3.627812        5.003885
 O         2.293773        6.079075        0.093302
 O         9.898342        7.473254       11.338362
 O         1.986876       10.658585        3.436937
 O         0.218107        3.524059        8.835341
 O         4.898057        7.694457        9.205392
 O         0.923532        8.284674        3.528295
 O         0.630988        6.726716       10.162884
 O         4.033363        3.685112       10.642694
 O         2.953361        9.386312        6.580374
 O        -0.091210        1.403878        4.539300
 O         1.321990        6.997530        6.011607
 O        10.397680        2.884816        1.418368
 O         1.268836       12.068472        7.191848
 O         8.416124        9.278658        2.153133
 O         9.001368        1.699767        9.830912
 O         3.128609        3.489513        3.937485
 O         3.663989        0.769307       13.403873
 O         6.274202        5.284926       10.370078
 O         5.870909        0.779137        1.214190
 O         2.590705        2.286791       -0.762265
 O         3.527648        7.980913       12.798189
 O         3.861514        7.634557        1.844399
 O         4.467508        0.345944       10.613602
 O         1.585529        9.100391       11.212511
 O         0.856611        1.149224       12.152863
 O        10.871758        9.674599        3.744116
 O         1.864788        3.698720        1.358986
 O        11.056259        5.440371       12.788857
 O         8.570196        0.643855        2.263381
 O         5.298064        8.282711        6.164885
 O         9.333212        3.265975       13.777318
 O         7.821756        6.510940        3.249954
 O         5.323905        6.809644        4.006535
 O         6.624671       -0.196382        8.819844
 O         4.354744       -0.318386        3.465039
 O         6.881258       12.758051        6.275909
 O        11.844242       11.857319        2.395136
 O         7.849098        3.857813        2.059432
 O        10.977617       11.088873        7.809404
 O         6.620634        2.771573       12.821622
 O         6.122846        8.756378       11.894187
 O        12.912479       -1.010891       13.970142
 O        11.748003        6.706788        0.948731
 O         3.190876       10.181906        9.231421
 O         9.923416        3.822710        7.350839
 O         7.616254        9.580107        9.893348
 O         0.772250        3.761750       12.717772
 O         7.689487        7.817413        7.560008
 O        -0.338855        4.038973        3.474241
 O        10.045553        8.735023        6.374905
 O         6.572281       10.352558        4.625265
 O         3.319305        5.206511       12.705879
 O         1.733349       13.401474        9.595910
 O         9.647964        5.386009        5.050392
 O        11.995224        7.697434       14.275794
 O         4.062320        2.557698        7.435951
 O        11.463911        6.415126        7.519947
 O         7.232139        7.462419       -0.558938
 H         3.159124        4.650759        5.351433
 H         3.629350        4.371432        6.834827
 H        10.400366        0.942785        5.839174
 H         8.905455        0.755903        6.258812
 H         2.547434        0.499112        5.865721
 H         3.588274        0.535194        4.606523
 H        10.105732       11.364283       11.341493
 H        10.303684       10.797064        9.781503
 H         7.665424        5.925052        7.653749
 H         7.483301        4.922151        6.617472
 H         6.956903        3.690263        4.066025
 H         7.166098        2.803100        5.394034
 H         2.658926        6.206921       -0.854355
 H         2.883696        6.481966        0.705169
 H         9.450510        7.894747       10.600471
 H        10.293108        8.271564       11.817213
 H         1.677575       10.306154        4.267486
 H         1.287530       11.093330        2.910937
 H         0.244966        3.667767        9.780659
 H        -0.741461        3.455204        8.619713
 H         4.969715        7.606977        8.182585
 H         4.353302        8.463369        9.353358
 H         1.076230        7.692880        4.298732
 H         1.757570        8.464376        3.031328
 H        -0.140356        6.788889        9.518853
 H         1.320870        6.114520        9.835518
 H         3.537193        3.236449        9.839865
 H         4.878603        4.015306       10.307953
 H         2.369251        8.641167        6.409934
 H         3.093135        9.594160        7.585806
 H         0.486094        1.221229        5.266356
 H         0.248192        0.905901        3.783915
 H         2.005087        6.307364        6.124601
 H         0.595454        6.692900        6.602950
 H         9.590382        3.468310        1.417029
 H        10.791750        3.114011        2.321296
 H         1.657007       12.433395        8.107823
 H         1.742836       11.188236        7.229791
 H         9.294373        9.439272        2.505086
 H         8.573385        9.151825        1.201395
 H         9.181965        1.580612       10.801340
 H         8.874001        2.635464        9.661315
 H         4.049970        3.338130        3.715068
 H         2.927659        2.728904        4.483593
 H         4.238142        0.246239       12.773844
 H         3.664972       12.356331       14.222651
 H         6.896117        5.487781       11.105337
 H         6.033867        6.195739       10.143546
 H         6.857869        0.938962        1.289039
 H         5.650184        0.660516        2.205711
 H         2.818851        1.439378       -0.375910
 H         2.410001        2.971583       -0.015229
 H         3.423187        7.115685       13.210082
 H         2.827237        8.037127       12.131754
 H         4.469594        7.502921        2.636253
 H         4.080001        8.542147        1.472740
 H         3.880121        0.987620       10.077439
 H         5.359729        0.386620       10.211559
 H         1.209232        8.279037       10.773973
 H         1.015315        9.231750       12.010974
 H         1.625573        1.204976       12.770587
 H         0.462837        2.061053       12.253278
 H        11.683746        9.119122        3.558706
 H        10.410294        9.337711        4.530022
 H         2.594483        3.851253        2.005785
 H         1.784266        4.581635        0.943363
 H        10.618488        5.795197       12.018222
 H        11.406736        6.202127       13.329943
 H         9.369925        1.201070        2.096061
 H         8.923439       -0.287712        2.238717
 H         5.174157        7.689553        5.407259
 H         4.472590        8.805338        6.308126
 H         9.775389        4.126880       13.742185
 H         8.561769        6.137283        3.892598
 H         8.237658        7.340642        2.930586
 H         6.289766        6.648494        3.816429
 H         4.946219        5.978121        4.292869
 H         6.924199       -1.126893        9.051461
 H         7.418599        0.385793        8.913809
 H         3.667061       -0.999345        3.300825
 H         5.216351       -0.762205        3.848318
 H         6.500456       12.373781        7.061163
 H         6.861341       11.979332        5.691138
 H        -0.211864       11.640757        1.484422
 H        11.428387       11.028547        2.745886
 H         7.781070        4.763841        2.398817
 H         7.014870        3.828362        1.489030
 H        10.434141       11.826086        7.461285
 H        11.906918       11.351940        7.593697
 H         6.225913        3.378188       13.440282
 H         5.871940        2.317034       12.324743
 H         5.253798        8.277361       12.042708
 H         6.156419        9.446741       12.587289
 H        12.677389       -0.362770       13.272026
 H        12.020645       -1.217757       14.322023
 H        12.434921        6.391711        0.298317
 H        12.098480        7.225454        1.748344
 H         2.370364       10.045036        9.813483
 H         3.653914       10.934727        9.614385
 H         9.708138        3.059268        6.794030
 H         9.030539        4.169477        7.676625
 H         7.122045        9.314373       10.679740
 H         8.458908        9.971085       10.292728
 H        -0.098556        4.331075       12.645891
 H         6.901625        8.029398        6.969329
 H         7.453526        8.370598        8.317857
 H        12.267616        3.229741        3.850777
 H         0.288678        4.306413        2.793474
 H         9.162727        8.579056        6.751721
 H        10.471170        9.587883        6.656624
 H         6.508117        9.616190        5.280325
 H         7.049629       10.137827        3.801789
 H         3.631480        4.721397       11.941792
 H         2.396152        4.931842       12.811100
 H         1.377304       13.270514       10.545625
 H         1.108673       14.110359        9.186302
 H        10.383251        5.135790        4.441423
 H         9.683504        4.716866        5.824816
 H        11.411898        8.455612       14.543685
 H        12.420620        7.506534       15.141035
 H         3.664557        1.924318        6.715406
 H         4.959268        2.689805        7.002837
 H        11.063429        5.559349        7.482357
 H        10.779545        7.029006        7.161949
 H         6.813010        6.589223       -0.403406
 H         6.932285        7.690291       -1.474603
 H         8.427586        3.566151       13.626931
 H         0.615735        3.447169       13.638391
    &END COORD
!    &TOPOLOGY
!      COORD_FILE_NAME   ./water.xyz
!      COORD_FILE_FORMAT xyz
!    &END TOPOLOGY
    &KIND Pb
      BASIS_SET DZVP-MOLOPT-SR-GTH-q4
      POTENTIAL GTH-PBE-q4
    &END KIND
    &KIND Br
      BASIS_SET DZVP-MOLOPT-SR-GTH-q7
      POTENTIAL GTH-PBE-q7
    &END KIND
    &KIND O
      BASIS_SET DZVP-MOLOPT-GTH-q6
      POTENTIAL GTH-PBE-q6
    &END KIND
    &KIND H
      BASIS_SET DZVP-MOLOPT-SR-GTH-q1
      POTENTIAL GTH-PBE-q1
    &END KIND
    &KIND C
      BASIS_SET DZVP-MOLOPT-GTH-q4
      POTENTIAL GTH-PBE-q4
!      BASIS_SET AUX_FIT cFIT3 !SZV-MOLOPT-SR-GTH
    &END KIND
    &KIND N
      BASIS_SET DZVP-MOLOPT-GTH-q5
      POTENTIAL GTH-PBE-q5
!      BASIS_SET AUX_FIT cFIT3 !SZV-MOLOPT-SR-GTH
    &END KIND
    &KIND Sn
      BASIS_SET DZVP-MOLOPT-SR-GTH-q4
      POTENTIAL GTH-PBE-q4
!      BASIS_SET AUX_FIT cFIT6 !SZV-MOLOPT-SR-GTH
    &END KIND
  &END SUBSYS
&END FORCE_EVAL
&MOTION
 &MD
    STEPS        50000000
    TIMESTEP     0.48
    TEMPERATURE  350
    ENSEMBLE     NVT
    &THERMOSTAT
      REGION MASSIVE
      TYPE NOSE
      &NOSE
        TIMECON  16.68
      &END NOSE
    &END THERMOSTAT
!    &BAROSTAT
!      PRESSURE  0.0
!      TIMECON   300
!    &END BAROSTAT
  &END MD
  &PRINT
   &TRAJECTORY
     &EACH
       MD 1
     &END EACH
   &END TRAJECTORY
   &CELL
     &EACH
       MD 1
     &END EACH
   &END CELL
   &VELOCITIES OFF
   &END VELOCITIES
   &FORCES OFF
   &END FORCES
   &RESTART_HISTORY
     &EACH
       MD 500
     &END EACH
   &END RESTART_HISTORY
   &RESTART
     BACKUP_COPIES 3
     &EACH
       MD 1
     &END EACH
   &END RESTART
  &END PRINT
&END MOTION
&GLOBAL
  PROJECT      perov-md
  RUN_TYPE     MD
  PRINT_LEVEL  LOW
&END GLOBAL