!&EXT_RESTART
! RESTART_FILE_NAME /home/fambrosi/DMA/dynamics/OH-/perov-md-1.restart
!&END EXT_RESTART
&FORCE_EVAL
  METHOD         Quickstep
  STRESS_TENSOR  ANALYTICAL
  &PRINT
    &STRESS_TENSOR
    &END STRESS_TENSOR
  &END PRINT
  &DFT
            BASIS_SET_FILE_NAME /usr/local/cp2k-6.1/data/BASIS_MOLOPT
            POTENTIAL_FILE_NAME /usr/local/cp2k-6.1/data/GTH_POTENTIALS
            BASIS_SET_FILE_NAME /usr/local/cp2k-6.1/data/BASIS_ADMM_MOLOPT
            BASIS_SET_FILE_NAME /usr/local/cp2k-6.1/data/BASIS_ADMM
            WFN_RESTART_FILE_NAME el-RESTART.wfn
    CHARGE +1
    &MGRID
      CUTOFF       800
      REL_CUTOFF    50
    &END MGRID
    &QS
    &END QS
    &SCF
      SCF_GUESS  RESTART
      MAX_SCF    50
      &OT
        MINIMIZER       DIIS
        PRECONDITIONER  FULL_SINGLE_INVERSE
      &END
      &OUTER_SCF
        MAX_SCF  50
      &END
      &PRINT
        &RESTART OFF
        &END
      &END
    &END SCF
    &PRINT
!       &MO LOW
!          EIGENVALUES
!          &EACH
!              QS_SCF 0
!          &END EACH
!       &END MO
       &MO_CUBES
        NHOMO 1
!       NLUMO 1
        WRITE_CUBE F
         &EACH
          MD 50
         &END EACH
       &END MO_CUBES
!       &TOT_DENSITY_CUBE
!       &END
    &END PRINT
    &XC
          ! functional part
      &XC_FUNCTIONAL
    &PBE
     PARAMETRIZATION REVPBE
            &END PBE
              &END XC_FUNCTIONAL
      ! non-local vdW part
      &vdW_POTENTIAL
         DISPERSION_FUNCTIONAL NON_LOCAL
         &NON_LOCAL
           TYPE RVV10
           PARAMETERS  9.3  0.0093
           KERNEL_FILE_NAME  /usr/local/cp2k-6.1/data/rVV10_kernel_table.dat
           CUTOFF      400
         &END NON_LOCAL
      &END vdW_POTENTIAL
    &END XC
  &END DFT
  &SUBSYS
    &CELL
      ABC [angstrom] 12.274 12.071 47.500
    &END CELL
    &COORD
 C         1.179875        4.881669       26.171726
 Br        2.342178        6.364165       22.840420
 Sn        3.756617        3.882456       22.812944
 Br        6.161600        4.986739       23.054983
 Br        4.021511        3.695372       20.113775
 Br       -0.135400        2.891548       22.265961
 Sn        9.540120        3.387018       22.609949
 Br        9.730157        3.307645       25.413948
 Br        8.590132        0.815628       22.295830
 Br       10.520199        3.541608       18.880459
 Sn       10.028361        3.926087       16.242788
 Br        7.325349        4.606523       16.640846
 Br        3.828859        1.329586       16.268181
 Sn        3.299982        4.081787       16.279081
 Br        0.860947        3.421248       15.323113
 Br       -1.465819        6.514276       16.411688
 Br        4.918952        3.507817       26.881439
 Sn        4.019160        3.476154       29.603905
 Br        3.910808        0.801252       29.405092
 Br        6.264467        3.937165       30.950706
 Br        0.382075        2.826480       29.880121
 Sn       10.081813        3.589970       30.218185
 Br       10.523489        3.815921       32.889103
 Br       10.737842        6.302285       29.494640
 Sn       10.116338        3.185381       36.511047
 Br       10.319983        3.731756       39.053280
 Br        9.525324        0.507084       37.070107
 Br        6.837881        3.556639       38.158760
 Sn        4.221772        3.419927       37.284721
 Br        4.445453        3.363743       34.570347
 Br        4.253695        6.187587       37.044994
 Br        0.500501        2.827651       36.683624
 Br        3.279461        4.039302       40.916538
 Sn        3.330084        3.833053       43.860355
 Br        4.803626        1.507725       43.957935
 Br        5.618019        5.133033       44.586372
 Br       -0.097534        3.199463       42.700390
 Sn       10.268851        3.254804       44.613956
 Br        9.812342        5.845234       44.105919
 Br       11.590005        6.823619       37.015827
 Sn        9.854362        9.400100       37.148235
 Br        9.790894        9.454818       39.825264
 Br        7.126781        9.216232       37.013859
 Br        0.833803       10.748716       36.834179
 Sn        3.310141        9.747067       37.100777
 Br        3.360231        9.434557       34.237614
 Br        4.705936       -0.126436       37.378929
 Br        9.165352        8.980533       33.296078
 Sn        9.400376        9.290037       30.620077
 Br        9.381885        0.041933       30.808771
 Br        6.690940        9.491413       30.411213
 Br        0.638118       10.520808       30.569790
 Sn        3.130901        9.226481       30.141911
 Br        2.511734        6.524513       29.872036
 Br        3.046555        9.775521       27.509884
 Sn        2.673550        9.787281       23.417414
 Br        2.870155        9.427405       20.700083
 Br        3.499835        0.261260       23.015526
 Br        6.450776        9.022818       23.123093
 Sn        8.971052        9.378887       24.077076
 Br        8.586873        9.532778       26.809298
 Br        9.725328        6.776044       24.349411
 Br       -0.193539       10.180929       22.935225
 Br        9.044244        9.510314       18.517147
 Sn        8.352880        8.570298       15.823409
 Br        9.533910       10.433356       13.994819
 Br        6.198597       10.271870       15.883359
 Br        0.630738       10.081608       16.653683
 Sn        3.219259        9.752192       16.371956
 Br        3.061192        7.170808       15.426226
 Br        3.384643       10.852731       41.539257
 Sn        3.903549       10.342167       44.155262
 Br        6.510278        9.536651       43.645168
 Br        9.236331       11.736827       45.351982
 Sn       11.046763        9.807385       44.811863
 Br       12.874159       -1.143655       46.368690
 Br        2.528535        7.864712       43.674187
 N         6.753217        5.833689       19.477205
 C         5.902930        7.045542       19.593065
 C         8.051107        5.958605       20.338724
 N         6.330387        6.716539       34.629723
 C         6.108000        6.915252       33.201504
 C         7.548061        5.926520       35.099518
 N         6.138290        6.962851       41.574711
 C         7.276243        6.076313       41.248989
 C         5.465758        7.708045       40.397636
 N         6.489449        6.190948       26.320263
 C         7.715050        5.784123       27.148516
 C         5.747792        7.281844       27.023643
 N         7.319598       -0.052926       19.403278
 C         6.005537       11.882491       20.091560
 N         6.901656        0.848993       32.831512
 C         5.614342       12.118525       32.962677
 N         6.529746        0.146384       27.348553
 C         7.603868        1.183933       27.628576
 N         6.428073        1.162352       40.868893
 C         7.153429        2.151744       41.718838
 N         1.234726        7.029348       33.137608
 C         1.392314        5.938340       34.147430
 N         0.113903        6.934788       19.262089
 C         0.966799        5.744324       19.383911
 N         0.397882        6.023604       40.262901
 C        13.631729        7.186840       39.892185
 N         0.506988        5.938120       25.494841
 C        13.165422        7.311620       25.891872
 C        11.732306       12.010752       33.798759
 N         0.663147        0.697066       34.229748
 C        12.285294       12.462070       19.851124
 N         1.436694        0.395409       20.254122
 C         1.821118        1.054051       39.580040
 N         0.310965        1.014868       39.676521
 C         1.027459        1.602527       26.401701
 N         0.449937        0.354358       27.030203
 C         7.446002        1.121583       34.143227
 C         7.600441        1.161786       18.622467
 C        11.855363        7.794993       20.402765
 C        12.076482        7.422935       33.008797
 C         5.928523        0.200343       25.951437
 C         7.259307        0.029288       40.433270
 C        -0.709734        6.523109       41.082352
 C         2.486940        0.670294       19.264217
 C         1.604094        0.944192       33.108704
 C        11.583473       -0.278391       26.247278
 C        12.067026        0.245550       40.870529
 H         5.553351        6.248673       35.101089
 H        -0.517935        5.924917       25.438856
 H        13.455410       -0.382727       27.138968
 H         7.693344       12.376294       32.265923
 H         6.670568        6.401972       25.306438
 H        13.856123        6.733236       32.221630
 H         1.127601       12.189970       34.989899
 H         5.704269        0.292529       28.039015
 H         6.580374        7.584965       35.065357
 H         0.934775        5.808932       24.523039
 H         0.279990        0.443188       28.091288
 H         6.539800        1.723940       32.284904
 H         5.816495        5.419818       26.307034
 H         1.780145        7.916127       33.381859
 H         0.449181        1.641257       34.680916
 H         6.965827       -0.828107       27.436764
 H         5.689823        7.924112       33.129452
 H         0.643466        4.769586       27.123169
 H        11.154710       -1.137837       26.815689
 H         7.705007        0.108962       34.517132
 H         8.326692        5.190143       26.461643
 H        11.490260        6.626159       32.658337
 H         1.823668        0.044738       32.549175
 H         6.450293       -0.578318       25.343992
 H         5.388822        6.177329       32.884117
 H         2.213071        4.994335       26.429859
 H        12.007127       -0.554451       25.277451
 H         6.607346        1.495724       34.753197
 H         8.203074        6.694888       27.487156
 H        11.739507        7.830210       33.951454
 H         1.127433        1.605537       32.444214
 H         4.839843       -0.058382       25.933817
 H         7.056927        6.752676       32.709949
 H         1.006319        4.005506       25.624691
 H        -1.493569       12.517282       26.109440
 H         8.338493        1.823159       34.179573
 H         7.441154        5.213790       28.018087
 H        -0.330940        8.272147       32.325195
 H         2.422886        1.429231       33.632984
 H         6.039721       13.238907       25.514925
 H         7.397001        4.886902       34.832039
 H        12.727173        8.028557       25.197626
 H         2.089399        1.804083       26.688580
 H         4.891143       12.632218       33.613163
 H         4.782539        7.472651       26.440218
 H         1.199516        6.534770       35.059784
 H        12.197043       11.239608       33.169960
 H         8.483349        0.715762       27.118988
 H         7.748104        6.087479       36.188156
 H        14.278894        7.373853       26.036320
 H         0.298565        2.394151       26.683687
 H         5.833312       11.035314       33.380657
 H         5.437842        6.965058       28.045729
 H         0.671803        5.133651       34.038033
 H        11.168853       11.517283       34.642788
 H         7.405965        2.131568       27.088699
 H         8.351665        6.331033       34.462944
 H        12.749722        7.515697       26.876593
 H         1.063071        1.381711       25.279749
 H         5.225225       -0.121277       31.920353
 H         6.311576        8.204240       27.036547
 H         2.400118        5.391847       34.119576
 H        11.038432        0.518324       33.192596
 H         7.761376        1.255965       28.682606
 H         7.098063        5.629518       18.490009
 H         8.077774       11.988839       20.086056
 H        11.628126        6.774662       18.570904
 H         1.731025       11.551423       20.627262
 H         6.028768        5.040956       19.741875
 H         7.604122       -0.870047       18.800966
 H         0.643282        7.662202       18.712318
 H         1.568666        1.011477       21.072485
 H         5.857284        7.383105       20.707117
 H         8.590211        1.015490       18.276093
 H        11.564758        8.770863       19.978954
 H         3.450254        0.759415       19.740408
 H         4.986042        6.611773       19.331749
 H         7.462441        2.045069       19.117321
 H        10.959230        7.457079       20.860413
 H         2.579448       -0.227756       18.576269
 H         6.304441        7.837764       18.902252
 H         6.852482        1.229506       17.842178
 H         0.357265        7.837400       21.182016
 H         2.221775        1.686092       18.790302
 H         8.594684        6.877908       20.085833
 H         5.313012       11.540078       19.268322
 H         0.400294        4.928430       19.974821
 H        11.949117       13.297335       19.257408
 H         8.702241        5.173894       20.122101
 H         5.685402       12.891984       20.488375
 H         1.168979        5.482371       18.356293
 H        12.127280       11.600812       19.110582
 H         7.618775        6.070050       21.380350
 H         6.121191       -0.862689       20.883289
 H         1.874615        5.991201       19.954742
 H        11.643707        0.374039       20.745441
 H         0.017215        5.676828       39.306213
 H        -0.094879        1.974937       39.485512
 H         5.319897        6.437495       41.947205
 H         6.177196        1.673322       40.064590
 H         0.924309        5.253580       40.803711
 H         0.147190        0.430961       38.805672
 H         6.212994        7.694921       42.397732
 H         5.546933        0.799893       41.343609
 H        -0.352439        6.556942       42.157394
 H        12.673031       -0.587925       41.125523
 H         6.835530        5.508385       40.444302
 H         7.661171       11.443224       41.215778
 H        -1.592525        5.897105       41.053722
 H        11.074065       -0.151388       40.606995
 H         8.105898        6.675015       40.727890
 H         6.612791       -0.618130       39.886295
 H        -0.980965        7.455018       40.576202
 H        -0.312185       13.115308       41.629681
 H         7.563770        5.547161       42.210247
 H         8.073408       12.480618       39.780437
 H         0.596779        8.020878       39.823154
 H         2.314511        1.519749       40.480915
 H         4.523277        8.195535       40.738907
 H         6.708231        1.901157       42.725418
 H        14.186417        6.953343       38.988922
 H         1.964651        1.628197       38.634914
 H         6.223094        8.424606       40.108906
 H         8.260553        1.952366       41.735588
 H        14.336223        7.303303       40.815239
 H         2.204305        0.102640       39.505390
 H         5.261182        6.940339       39.628452
 H         6.922127        3.213175       41.437618
 O         5.574995        4.260843       47.754337
 H         5.238829        4.664645       46.943497
 H         5.489743        3.256167       47.662327
 O         5.409414       10.319200       47.544788
 H         6.255753        9.975316       47.149467
 H         5.609664       11.284443       47.575485
 O        10.119107        8.596921       46.742508
 H        10.797615        7.952219       47.186260
 H         9.330979        8.055346       46.464249
 O        11.934978        3.494623       46.148724
 H        11.642426        3.392916       47.110100
 H        12.819797        2.917600       46.086849
 O        10.334177        1.316654       12.240345
 H        -2.548035        0.795019       12.812388
 H        10.275242        2.231062       12.536956
 O         7.354403        6.794536       12.856015
 H         6.439526        7.157200       13.063484
 H         7.859772        7.570831       12.449636
 O         3.196704       10.636477       14.374280
 H         3.402513       10.102685       13.551943
 H         2.307432       11.007227       14.070387
 O         4.108156        4.137866       14.145385
 H         4.343736        3.200961       13.782049
 H         3.921915        4.834145       13.460379
 O         3.645169        5.669392        5.679418
 O         9.924785        1.782035        5.935422
 O         3.263771        1.637717        4.732664
 O        10.150479       11.113093       10.153434
 O         7.803618        5.520807        7.068347
 O         6.930145        4.181872        4.486162
 O         2.490272        6.633135       -0.424421
 O        10.094843        8.027314       10.820639
 O         2.183375       11.212646        2.919214
 O         0.414606        4.078119        8.317618
 O         5.094557        8.248516        8.687669
 O         1.120031        8.838735        3.010572
 O         0.827487        7.280776        9.645161
 O         4.229862        4.239172       10.124970
 O         3.149860        9.940373        6.062651
 O         0.105289        1.957938        4.021577
 O         1.518489        7.551590        5.493884
 O        10.594181        3.438876        0.900645
 O         1.465335       12.622533        6.674125
 O         8.612625        9.832718        1.635410
 O         9.197867        2.253827        9.313189
 O         3.325108        4.043573        3.419762
 O         3.860488        1.323367       12.886150
 O         6.470701        5.838987        9.852355
 O         6.067408        1.333197        0.696467
 O         2.787204        2.840851       -1.279988
 O         3.724147        8.534973       12.280466
 O         4.058013        8.188616        1.326676
 O         4.664007        0.900004       10.095879
 O         1.782028        9.654452       10.694788
 O         1.053110        1.703284       11.635139
 O        11.068257       10.228660        3.226393
 O         2.061287        4.252780        0.841263
 O        11.252759        5.994431       12.271133
 O         8.766697        1.197915        1.745658
 O         5.494563        8.836772        5.647162
 O         9.529712        3.820035       13.259595
 O         8.018254        7.065000        2.732231
 O         5.520404        7.363704        3.488812
 O         6.821170        0.357678        8.302121
 O         4.551244        0.235674        2.947316
 O         7.077758       13.312112        5.758186
 O        12.040742       12.411380        1.877413
 O         8.045597        4.411873        1.541709
 O        11.174118       11.642933        7.291681
 O         6.817133        3.325633       12.303899
 O         6.319345        9.310438       11.376464
 O        13.108980       -0.456831       13.452419
 O        11.944504        7.260848        0.431008
 O         3.387375       10.735966        8.713697
 O        10.119916        4.376770        6.833116
 O         7.812753       10.134168        9.375625
 O         0.968749        4.315810       12.200048
 O         7.885986        8.371474        7.042285
 O        -0.142356        4.593033        2.956518
 O        10.242054        9.289084        5.857182
 O         6.768780       10.906618        4.107542
 O         3.355044        5.757691       12.389235
 O         1.929848       13.955534        9.078187
 O         9.844465        5.940069        4.532669
 O        12.191724        8.251493       13.758071
 O         4.258819        3.111758        6.918228
 O        11.660411        6.969186        7.002224
 O         7.428638        8.016479       -1.076661
 H         3.355623        5.204819        4.833710
 H         3.825849        4.925493        6.317104
 H        10.596867        1.496845        5.321451
 H         9.101954        1.309963        5.741089
 H         2.743933        1.053172        5.347998
 H         3.784773        1.089254        4.088800
 H        10.302232       11.918343       10.823770
 H        10.500185       11.351125        9.263780
 H         7.861924        6.479112        7.136026
 H         7.679800        5.476211        6.099749
 H         7.153402        4.244323        3.548302
 H         7.362597        3.357160        4.876311
 H         2.855425        6.760981       -1.372078
 H         3.080195        7.036026        0.187446
 H         9.647011        8.448807       10.082748
 H        10.489609        8.825625       11.299490
 H         1.874074       10.860214        3.749763
 H         1.484029       11.647390        2.393214
 H         0.441465        4.221827        9.262936
 H        -0.544962        4.009264        8.101990
 H         5.166214        8.161036        7.664862
 H         4.549801        9.017430        8.835635
 H         1.272729        8.246940        3.781009
 H         1.954069        9.018437        2.513605
 H         0.056143        7.342949        9.001130
 H         1.517369        6.668580        9.317795
 H         3.733693        3.790509        9.322142
 H         5.075103        4.569367        9.790230
 H         2.565750        9.195228        5.892211
 H         3.289634       10.148220        7.068083
 H         0.682593        1.775289        4.748633
 H         0.444691        1.459961        3.266192
 H         2.201586        6.861424        5.606878
 H         0.791953        7.246960        6.085227
 H         9.786882        4.022370        0.899306
 H        10.988250        3.668071        1.803573
 H         1.853506       12.987455        7.590101
 H         1.939335       11.742297        6.712068
 H         9.490872        9.993332        1.987363
 H         8.769886        9.705885        0.683672
 H         9.378465        2.134672       10.283617
 H         9.070500        3.189524        9.143592
 H         4.246469        3.892190        3.197345
 H         3.124158        3.282964        3.965870
 H         4.434641        0.800299       12.256121
 H         3.861472       12.910391       13.704928
 H         7.092616        6.041841       10.587614
 H         6.230366        6.749799        9.625823
 H         7.054368        1.493022        0.771316
 H         5.846683        1.214576        1.687988
 H         3.015350        1.993438       -0.893633
 H         2.606500        3.525643       -0.532952
 H         3.619686        7.669744       12.692359
 H         3.023736        8.591187       11.614031
 H         4.666093        8.056980        2.118530
 H         4.276500        9.096207        0.955017
 H         4.076620        1.541680        9.559716
 H         5.556228        0.940680        9.693836
 H         1.405731        8.833098       10.256249
 H         1.211814        9.785810       11.493251
 H         1.822072        1.759036       12.252864
 H         0.659336        2.615113       11.735555
 H        11.880247        9.673182        3.040983
 H        10.606793        9.891772        4.012299
 H         2.790982        4.405313        1.488062
 H         1.980765        5.135696        0.425640
 H        10.814988        6.349258       11.500499
 H        11.603237        6.756188       12.812220
 H         9.566425        1.755130        1.578338
 H         9.119939        0.266348        1.720994
 H         5.370656        8.243612        4.889536
 H         4.669090        9.359399        5.790403
 H         9.971889        4.680940       13.224462
 H         8.758270        6.691344        3.374875
 H         8.434158        7.894702        2.412863
 H         6.486265        7.202554        3.298706
 H         5.142719        6.532181        3.775146
 H         7.120698       -0.572833        8.533738
 H         7.615098        0.939853        8.396086
 H         3.863560       -0.445285        2.783102
 H         5.412850       -0.208145        3.330595
 H         6.696955       12.927842        6.543440
 H         7.057840       12.533392        5.173415
 H        -0.015365       12.194818        0.966699
 H        11.624887       11.582607        2.228163
 H         7.977568        5.317901        1.881094
 H         7.211369        4.382422        0.971307
 H        10.630641       12.380147        6.943562
 H        12.103417       11.906001        7.075974
 H         6.422412        3.932248       12.922559
 H         6.068439        2.871094       11.807020
 H         5.450297        8.831422       11.524985
 H         6.352918       10.000801       12.069566
 H        12.873889        0.191290       12.754303
 H        12.217146       -0.663697       13.804300
 H        12.631422        6.945771       -0.219406
 H        12.294980        7.779515        1.230621
 H         2.566863       10.599096        9.295760
 H         3.850414       11.488787        9.096662
 H         9.904638        3.613328        6.276307
 H         9.227038        4.723537        7.158902
 H         7.318544        9.868434       10.162017
 H         8.655409       10.525146        9.775005
 H         0.097943        4.885135       12.128168
 H         7.098124        8.583459        6.451606
 H         7.650025        8.924659        7.800133
 H        12.464117        3.783801        3.333054
 H         0.485177        4.860473        2.275751
 H         9.359227        9.133116        6.233998
 H        10.667670       10.141943        6.138901
 H         6.704616       10.170251        4.762602
 H         7.246128       10.691887        3.284066
 H         3.667219        5.272577       11.625148
 H         2.431891        5.483021       12.494455
 H         1.573803       13.824574       10.027902
 H         1.305172       14.664419        8.668579
 H        10.579751        5.689850        3.923700
 H         9.880004        5.270927        5.307093
 H        11.608398        9.009672       14.025962
 H        12.617121        8.060594       14.623312
 H         3.861056        2.478378        6.197683
 H         5.155767        3.243865        6.485114
 H        11.259930        6.113409        6.964634
 H        10.976046        7.583066        6.644226
 H         7.009509        7.143283       -0.921129
 H         7.128784        8.244351       -1.992326
 H         8.624086        4.120211       13.109208
 H         0.812234        4.001229       13.120667
 H         2.582           7.611          14.5
    &END COORD
     &COLVAR
      &DISTANCE
        ATOMS  70  469
      &END DISTANCE
     &END COLVAR
!    &TOPOLOGY
!      COORD_FILE_NAME   ./water.xyz
!      COORD_FILE_FORMAT xyz
!    &END TOPOLOGY
    &KIND Pb
      BASIS_SET DZVP-MOLOPT-SR-GTH-q4
      POTENTIAL GTH-PBE-q4
    &END KIND
    &KIND Br
      BASIS_SET DZVP-MOLOPT-SR-GTH-q7
      POTENTIAL GTH-PBE-q7
    &END KIND
    &KIND O
      BASIS_SET DZVP-MOLOPT-GTH-q6
      POTENTIAL GTH-PBE-q6
    &END KIND
    &KIND H
      BASIS_SET DZVP-MOLOPT-SR-GTH-q1
      POTENTIAL GTH-PBE-q1
    &END KIND
    &KIND C
      BASIS_SET DZVP-MOLOPT-GTH-q4
      POTENTIAL GTH-PBE-q4
!      BASIS_SET AUX_FIT cFIT3 !SZV-MOLOPT-SR-GTH
    &END KIND
    &KIND N
      BASIS_SET DZVP-MOLOPT-GTH-q5
      POTENTIAL GTH-PBE-q5
!      BASIS_SET AUX_FIT cFIT3 !SZV-MOLOPT-SR-GTH
    &END KIND
    &KIND Sn
      BASIS_SET DZVP-MOLOPT-SR-GTH-q4
      POTENTIAL GTH-PBE-q4
!      BASIS_SET AUX_FIT cFIT6 !SZV-MOLOPT-SR-GTH
    &END KIND
  &END SUBSYS
&END FORCE_EVAL
&MOTION
  &CONSTRAINT
    &COLLECTIVE
      TARGET   2.672
      INTERMOLECULAR T
      COLVAR 1
        &RESTRAINT
          k 0.1
        &END RESTRAINT
       &END COLLECTIVE
&END CONSTRAINT
 &MD
    STEPS        50000000
    TIMESTEP     0.48
    