&EXT_RESTART
 RESTART_FILE_NAME /home/fambrosi/DMA/dynamics/OH-/perov-md-1.restart
&END EXT_RESTART
&FORCE_EVAL
  METHOD         Quickstep
  STRESS_TENSOR  ANALYTICAL
  &PRINT
    &STRESS_TENSOR
    &END STRESS_TENSOR
  &END PRINT
  &DFT
            BASIS_SET_FILE_NAME /usr/local/cp2k-6.1/data/BASIS_MOLOPT
            POTENTIAL_FILE_NAME /usr/local/cp2k-6.1/data/GTH_POTENTIALS
            BASIS_SET_FILE_NAME /usr/local/cp2k-6.1/data/BASIS_ADMM_MOLOPT
            BASIS_SET_FILE_NAME /usr/local/cp2k-6.1/data/BASIS_ADMM
            WFN_RESTART_FILE_NAME el-RESTART.wfn
    CHARGE -1
    &MGRID
      CUTOFF       800
      REL_CUTOFF    50
    &END MGRID
    &QS
    &END QS
    &SCF
      SCF_GUESS  RESTART
      MAX_SCF    50
      &OT
        MINIMIZER       DIIS
        PRECONDITIONER  FULL_SINGLE_INVERSE
      &END
      &OUTER_SCF
        MAX_SCF  50
      &END
      &PRINT
        &RESTART OFF
        &END
      &END
    &END SCF
    &PRINT
!       &MO LOW
!          EIGENVALUES
!          &EACH
!              QS_SCF 0
!          &END EACH
!       &END MO
       &MO_CUBES
        NHOMO 1
!       NLUMO 1
        WRITE_CUBE F
         &EACH
          MD 50
         &END EACH
       &END MO_CUBES
!       &TOT_DENSITY_CUBE
!       &END
    &END PRINT
    &XC
          ! functional part
      &XC_FUNCTIONAL
    &PBE
     PARAMETRIZATION REVPBE
            &END PBE
              &END XC_FUNCTIONAL
      ! non-local vdW part
      &vdW_POTENTIAL
         DISPERSION_FUNCTIONAL NON_LOCAL
         &NON_LOCAL
           TYPE RVV10
           PARAMETERS  9.3  0.0093
           KERNEL_FILE_NAME  /usr/local/cp2k-6.1/data/rVV10_kernel_table.dat
           CUTOFF      400
         &END NON_LOCAL
      &END vdW_POTENTIAL
    &END XC
  &END DFT
  &SUBSYS
    &CELL
      ABC [angstrom] 12.274 12.071 47.500
    &END CELL
    &COORD
C          1.22081        5.30364       25.76323
Br         2.98640        6.13799       22.99497
Sn         3.74169        3.47206       22.08369
Br         6.26692        4.01658       23.05149
Br         4.67754        3.50208       19.47592
Br         0.50173        2.73538       22.53262
Sn        10.05755        3.37967       22.53381
Br         9.95597        3.62968       25.26007
Br         8.80454        0.57443       22.41731
Br        10.43309        3.88239       18.90592
Sn         9.51206        4.18877       16.18477
Br         7.19398        5.35295       16.76474
Br         5.12659        1.53809       15.82818
Sn         3.84463        3.81401       15.66948
Br         1.16873        3.08187       15.49148
Br        -1.23181        6.22999       15.81468
Br         5.03796        3.88852       27.41012
Sn         4.24484        3.84998       30.03985
Br         4.32793        1.12298       30.18737
Br         6.82739        3.82098       30.89470
Br         1.21926        3.59792       28.70739
Sn        10.73810        4.22188       29.09307
Br        10.65646        4.21656       31.76850
Br        10.60228        6.80782       28.80905
Sn         9.48394        3.68865       37.23181
Br         9.86146        4.00093       39.80973
Br         9.40248        0.88500       37.61691
Br         5.58792        3.93685       37.49108
Sn         3.19961        3.81194       36.51084
Br         4.19452        3.34641       33.88108
Br         3.26856        6.52892       35.95898
Br        -0.34005        3.57845       35.81243
Br         3.67697        3.79115       40.97038
Sn         3.53442        4.26714       43.82068
Br         4.70474        1.75322       44.44783
Br         5.99652        5.56832       43.90453
Br         0.25708        2.97099       44.11641
Sn        10.10511        3.06583       45.20093
Br         9.91780        5.71229       44.69284
Br        10.42267        6.75247       36.28465
Sn         9.78033        9.34590       36.74652
Br         9.52358        9.11824       39.60831
Br         7.11791        8.81440       37.08725
Br         0.81457        9.75512       37.50408
Sn         3.38173       10.01340       36.73652
Br         3.10413        9.92558       34.07479
Br         3.36823        0.62841       36.45015
Br         9.07436       10.10942       33.67875
Sn         9.80612        9.72678       30.86223
Br        10.17184        0.28219       30.88237
Br         7.35595        9.31534       29.78673
Br         1.10179        9.40487       29.92351
Sn         3.90570        9.61465       29.96775
Br         4.37213        7.07797       29.09619
Br         4.09041       10.46682       27.38657
Sn         3.81832        9.92054       22.49170
Br         2.82899        9.70010       19.86894
Br         4.63201        0.48941       22.60638
Br         7.02598        8.98453       22.99837
Sn         9.83058        9.62380       23.09083
Br         9.95112       10.33077       25.65652
Br        10.02881        6.80256       23.61092
Br         1.14194       10.64442       23.57493
Br         8.85055        9.31104       18.41086
Sn         8.14240        8.81492       15.49041
Br         8.37007       11.45743       14.45684
Br         5.55276        9.13975       16.05045
Br        -0.19397       10.47976       16.62108
Sn         2.54424       10.33177       16.69846
Br         2.29371        7.60589       16.26554
Br         2.77339       11.20025       41.49685
Sn         3.41328       10.39783       44.00130
Br         5.96838        9.90677       43.21201
Br         9.62364       11.82916       44.21483
Sn        10.92340        9.51270       44.68493
Br        12.43158       -1.05702       46.41341
Br         2.49726        7.83950       43.43949
N          6.46006        6.54869       20.49102
C          6.00215        7.60218       19.54455
C          7.79403        5.95829       20.23224
N          6.65548        6.58148       34.19056
C          6.11076        7.30887       32.98994
C          7.86189        5.80492       33.82239
N          6.13392        7.64037       41.14175
C          7.02804        6.43819       40.82235
C          4.95019        7.76965       40.17961
N          6.81164        6.60171       25.58983
C          7.67497        6.36598       26.73203
C          5.45242        7.35965       25.83614
N          7.66220        0.06010       19.12790
C          6.27669       11.66696       19.07186
N          7.08895        1.14944       32.95914
C          6.06836       12.21664       33.34990
N          7.44542        1.63198       27.02400
C          7.45805        0.73521       28.26003
N          5.94475        1.23435       41.09320
C          7.11128        1.90033       41.80897
N          0.56937        6.94032       32.13837
C          1.90729        6.33226       32.10930
N         -0.10112        6.66378       18.98091
C          1.17295        6.03057       19.50601
N         -0.33748        6.48479       39.68095
C         13.12501        6.46666       38.78757
N          0.91127        6.63169       25.17821
C         13.46222        7.68645       26.28472
C         12.21341       12.48192       34.25763
N          0.95480        1.34740       33.64931
C         11.69379       11.63238       20.06980
N          0.77416        0.10457       20.14803
C          0.85580        1.39542       39.67193
N         -0.14830        0.34113       39.61523
C          1.98535        1.60335       25.72369
N          2.02534        1.05595       27.12698
C          7.88031        1.70680       34.09917
C          7.96996        0.98452       17.96894
C         11.45251        7.39141       20.02634
C         12.41977        7.32813       33.53028
C          7.18207        0.90942       25.75514
C          6.28694        0.33781       39.97235
C         -0.11305        6.60407       41.17784
C          1.10502        0.94690       18.91047
C          1.76557        0.99895       32.38744
C         13.12047        0.27122       27.48168
C         11.46804       -0.01097       40.97901
H          5.89928        5.93299       34.50180
H         -0.09513        6.76701       24.88544
H         15.18171        0.42525       27.28159
H          7.76783       12.74922       32.32172
H          7.33792        7.07198       24.86510
H         12.18044        6.30880       31.69862
H          1.67608       13.53252       34.36456
H          8.30996        2.22331       26.96744
H          6.81785        7.26965       34.92257
H          1.52316        6.78069       24.34304
H          2.35230        1.82438       27.78138
H          6.74023        2.00816       32.45158
H          6.61401        5.65451       25.22305
H          0.60776        7.82484       31.60945
H          0.49964        2.29004       33.62791
H          6.69404        2.35032       27.19086
H          5.08468        7.69547       33.23661
H          0.60837        5.09525       26.60359
H         13.19624       -0.40145       28.30863
H          8.34397        0.88911       34.70940
H          8.58961        5.93869       26.34068
H         13.16815        8.03837       33.92060
H          1.57303        0.00688       31.94779
H          6.37775        0.25152       25.99748
H          6.13334        6.53039       32.20759
H          2.29628        5.26178       26.00205
H         12.78478       -0.29809       26.64218
H          7.16149        2.37456       34.68285
H          7.83157        7.27535       27.33387
H         11.41257        7.84084       33.44298
H          1.72737        1.83452       31.62238
H          7.00013        1.69332       25.00823
H          6.82242        8.04445       32.64243
H          1.09544        4.47449       25.06857
H         -0.05854       12.97408       27.69069
H          8.70148        2.36695       33.64090
H          7.15906        5.56019       27.30086
H         -0.00758        6.49623       34.17968
H          2.79445        0.92752       32.69729
H          8.00393       12.35687       25.45023
H          8.48383        6.57425       33.41274
H         12.63694        7.60158       26.95946
H          0.98016        2.12237       25.57523
H          6.51678       11.37830       33.83334
H          5.06755        7.12657       26.79910
H          2.66169        6.83503       32.78603
H         11.56896       12.13322       33.39553
H          7.39878        1.34957       29.09061
H          7.58220        5.10813       33.00775
H         13.47518        8.68587       25.87476
H          2.08285        0.78993       24.99039
H          5.40952       12.03653       32.44892
H          5.65565        8.43633       25.67951
H          1.75743        5.36091       32.56983
H         12.75283       11.76161       34.81657
H          6.59788        0.06687       28.25849
H          8.23098        5.39183       34.71881
H         14.42477        7.46998       26.77423
H          2.79669        2.28935       25.65326
H          5.47094        0.63699       34.13054
H          4.74258        7.00538       25.10967
H          2.25154        6.24816       30.99607
H         11.63809        0.88448       35.07416
H          8.45116        0.20152       28.33272
H          5.76947        5.68905       20.52311
H          7.80658       12.62324       20.03699
H         11.55828        6.05035       18.47914
H          1.50061       11.45877       20.12417
H          6.44614        7.00167       21.40877
H          8.26641       -0.78686       19.08658
H          0.16306        7.37224       18.28023
H          1.04071        0.63763       21.00850
H          5.04865        8.02157       19.90959
H          7.33859        1.87130       17.98199
H         12.20379        7.83051       20.62436
H          2.15508        0.68722       18.80012
H          5.80956        7.14853       18.56827
H          7.69562        0.36535       17.04650
H         10.71984        8.02787       19.57822
H          0.49149        0.60601       18.08444
H          6.69549        8.42078       19.39280
H          9.03691        1.16519       17.84824
H         -1.26196        6.59566       20.67586
H          0.97540        2.02448       19.14686
H          7.87010        4.99691       20.73760
H          6.08245       11.17249       18.08935
H          1.58067        6.68525       20.26210
H         11.33514       11.51348       21.07383
H          8.67505        6.59671       20.51918
H          5.60796       12.51717       19.14279
H          0.88607        5.08562       19.96070
H         11.07050       12.18541       19.49305
H          7.85136        5.67426       19.12296
H          5.91306       -1.05923       19.90761
H          1.79131        5.82566       18.69187
H         11.86101       -1.46103       19.67009
H         -0.96788        7.25549       39.35287
H         -0.89887        0.47003       38.93980
H          5.88256        7.66298       42.20419
H          5.40982        2.02986       40.70583
H         -0.80484        5.62768       39.53346
H          0.37123       -0.53731       39.35577
H          6.69334        8.49546       41.08392
H          5.21880        0.81697       41.74655
H         -1.03452        6.84329       41.70867
H         12.38085        0.05744       41.64539
H          7.36570        6.67654       39.76452
H          6.98610       11.71567       40.40106
H          0.56138        7.39898       41.38676
H         11.11737       -1.03888       40.83061
H          7.89244        6.57288       41.52707
H          5.40269       -0.22785       39.62785
H          0.26030        5.66103       41.62339
H         -1.58449       12.85526       41.22051
H          6.43153        5.52943       40.92979
H          6.63884       12.87221       39.02751
H          1.21157        7.47838       38.60730
H          1.59774        1.27712       40.42902
H          4.38122        6.80533       40.00214
H          7.46562        1.18053       42.63726
H         12.68043        6.14471       37.85322
H          0.38457        2.36499       39.76579
H          4.19627        8.43327       40.55578
H          7.80715        2.23420       41.08958
H         13.86556        5.76820       39.15988
H          1.31288        1.52480       38.70558
H          5.40247        8.10188       39.25422
H          6.81095        2.76718       42.33967
O          4.10635        2.79484       47.85705
H          4.64871        2.44508       47.07923
H          4.32347        2.19971       48.61280
O          6.32482       10.06870       48.04047
H          6.59037        9.36447       47.35873
H          6.40297       10.98157       47.60909
O          9.75891        8.77832       46.51144
H         10.25754        7.92212       46.85727
H          8.87714        8.50788       46.30901
O         11.16666        3.11853       47.33862
H         10.88657        3.57271       48.21363
H         11.89218        2.54182       47.43854
O          9.79475        1.14010       11.80518
H         -1.67865        1.54224       11.34035
H         10.18266        0.79336       12.69253
O          8.00273        8.42796       12.87840
H          8.96689        8.42270       12.56495
H          7.53167        7.65628       12.51388
O          2.38699       10.88804       14.34733
H          2.67236       10.12087       13.79171
H          1.46196       11.05660       14.09430
O          4.18455        3.64704       13.43229
H          3.62334        4.30626       12.90703
O          3.10241        5.39985        5.61334
O         10.93330        3.36350        6.72356
O          4.51827        1.79666        2.79671
O         13.26133       11.99813        9.48264
O          7.53802        5.96362        7.62978
O          7.82213        4.16673        5.53672
O          1.07986        5.42645       -0.84006
O         10.81441        7.90295        9.92374
O          1.67196       12.57266        2.54758
O         -0.93399        3.04591        9.87945
O          3.43145        8.43861        9.92153
O          1.93275        9.97250        1.95863
O          1.88761        5.91964       10.19974
O          4.27710        3.90941        9.14056
O          1.98776       10.90105        6.18119
O          0.33546        2.61630        4.71872
O          2.67515        8.13761        7.11672
O          9.96244        4.14786        2.14673
O          2.10241       13.65596        6.19156
O          8.70537        9.79308        2.27038
O          8.74032        4.70392        9.81041
O          5.21970        5.03899        2.58938
O          3.60278        1.21437       12.65961
O          5.45768        6.44392        9.73695
O          6.93357        0.68647       -0.31225
O          1.42094        1.75647        0.04573
O          3.85970        9.20791       12.83575
O          4.39406        9.27267        2.43754
O          5.33163        1.33118       10.40597
O          0.98308        9.27875       11.04311
O          0.70544        1.87844       11.93713
O         11.69632        8.54880        2.60213
O          2.74776        5.18310        1.35558
O         10.86236        6.37848       12.10144
O          8.91433        1.48510        2.56763
O          6.00384        9.32046        6.39177
O          8.68256        4.22382       13.42507
O          8.25179        7.43058        3.71307
O          5.58885        7.27297        4.19788
O          7.97882        1.90518        9.87636
O          5.53175       -0.76630        4.44335
O          7.65130       13.89344        7.13409
O         11.39951       12.23299        3.57687
O          7.14272        5.28982        0.43811
O         11.10733       11.61618        7.71077
O          7.03698        5.74169       11.83365
O          7.01584       10.85336       10.45939
O         11.93871        0.28146       14.17123
O         11.04714        6.93095        0.17259
O          4.23373       10.81047        8.94079
O         11.88666        5.58097        8.24964
O          9.31702        9.98714        9.35748
O          1.12054        4.85805       12.71995
O          8.68466        8.76831        6.92095
O          0.18666        4.65041        2.96976
O         10.88165       10.00839        5.24525
O          8.20585       11.82358        4.43875
O          3.49011        6.21655       12.61056
O          1.52729       14.93788        8.52827
O         10.87770        6.57928        4.30818
O         10.80993        9.15223       13.46065
O          4.76723        2.57598        6.62456
O         12.49027        7.34828        6.42212
O          7.04930        8.15181       -1.22334
H          3.74456        4.72937        5.37365
H          2.28713        5.15869        5.05509
H         11.35325        3.14099        5.85153
H         10.00319        3.56279        6.53928
H          3.64979        1.29388        2.92727
H          5.10108        1.13159        3.19963
H         12.98383       12.54384       10.17851
H         13.19561       11.14827        9.99749
H          7.86502        6.88622        7.38148
H          7.27122        5.49133        6.82869
H          8.11413        4.02486        4.60314
H          7.65013        3.16984        5.69935
H          0.76550        4.49313       -0.78128
H          1.11931        5.70952       -1.79292
H         10.20310        8.69927        9.82072
H         11.67061        8.30260       10.15223
H          1.72453       11.75955        2.04136
H          1.17746       13.13683        1.87126
H         -1.74573        3.56792        9.65073
H         -0.33577        3.37786        9.17772
H          3.04776        8.38093        8.96728
H          3.76552        9.39443        9.91352
H          2.86862        9.62420        1.98436
H          1.52189        9.61764        1.08764
H          1.51802        5.08545       10.35015
H          1.62183        5.99064        9.26400
H          4.44412        3.51026        8.28274
H          4.64353        4.81838        9.11080
H          1.08365       10.82132        5.84987
H          2.44575       10.00143        6.21470
H          1.09896        2.16667        5.23459
H         -0.13977        1.87129        4.30924
H          3.29158        7.40502        6.92626
H          1.83533        7.76686        6.73169
H          9.39109        4.90235        1.87032
H         10.73448        4.48015        2.58827
H          1.76984       13.80540        7.15293
H          2.13790       12.69539        6.08752
H          9.58256        9.64080        1.83494
H          7.97894        9.87553        1.64725
H          8.38290        5.39230       10.36298
H          8.48992        4.93604        8.94601
H          5.29477        4.04595        2.52328
H          4.35810        5.28751        2.09864
H          4.20729        0.83108       11.94344
H          3.54312       12.72365       13.41637
H          4.72415        7.09958        9.69983
H          5.99407        6.66689        9.01380
H          7.49049        0.59145       -1.10895
H          7.52116        0.59131        0.43480
H          1.57457        1.27304       -0.78329
H          2.28790        2.04627        0.34356
H          4.46821        9.18370       13.63939
H          3.45523        8.27773       12.72627
H          4.80613        8.47357        2.93091
H          4.99812        9.50642        1.63736
H          5.23928        2.15825        9.92026
H          6.29764        1.20999       10.54235
H          1.70554        8.70158       10.79929
H          0.59670        9.02788       11.92009
H          1.62211        1.56803       12.18832
H          0.58724        2.84572       12.20252
H         12.54691        9.03289        2.72978
H         11.64237        7.80854        3.29501
H          3.05635        4.28984        1.27993
H          2.64844        5.54814        0.40801
H         10.93254        7.05155       11.30759
H         10.66677        6.84829       12.93269
H          9.30592        2.39353        2.37515
H          9.71517        0.92727        2.56576
H          5.73762        8.63761        5.73858
H          5.75039       10.17474        5.96445
H          9.27791        4.73738       12.86125
H          9.07945        7.07800        4.01549
H          8.34605        8.15537        3.01892
H          6.58679        7.19494        3.99235
H          5.23540        6.42013        3.99952
H          8.50034        1.44331       10.55465
H          8.19191        2.83313       10.05160
H          5.15208       -1.46336        3.90738
H          6.51480       -0.72515        4.23573
H          7.65728       13.98402        8.08541
H          7.77003       12.91334        6.99875
H          0.08790       12.02547        3.34725
H         11.14423       11.46578        4.21356
H          6.63779        5.75434        1.16989
H          6.63098        4.47254        0.28843
H         10.79830       12.52502        7.46756
H         11.93611       11.72148        8.25668
H          6.72618        5.16688       12.52898
H          6.23535        5.93624       11.19495
H          6.40504       10.37700        9.86700
H          6.99893       10.56582       11.42846
H         12.37720        1.16987       13.95541
H         11.92137        0.37747       15.17460
H         11.38291        7.47939        0.89545
H         11.80881        6.47758       -0.24145
H          3.35799       10.97288        8.59183
H          4.45134       11.72343        9.32888
H         11.39962        4.81988        7.83244
H         11.45436        5.97218        9.00501
H          8.56272       10.28499        9.93393
H          9.87290       10.69321        8.98174
H          0.29352        5.36390       12.46884
H          7.69907        8.93011        6.77615
H          8.82603        8.93721        7.90147
H         12.68719        3.91480        3.60320
H          0.95447        5.25188        2.75422
H         10.04319        9.74854        4.93286
H         10.71323       10.43037        6.11471
H          8.51588       11.14507        3.80203
H          8.21217       12.68538        3.94580
H          3.44037        6.00349       11.61403
H          2.48957        6.13307       12.81447
H          1.53499       14.63620        9.48460
H          2.34639       15.50134        8.61381
H         11.45366        5.78972        4.03400
H         11.46258        6.88029        5.02300
H         10.48604        9.99711       13.79689
H         11.47010        8.84144       14.13391
H          3.79838        2.24367        6.66273
H          5.29005        1.80011        6.75283
H         12.17201        6.65964        7.05816
H         12.01611        8.13506        6.73402
H          6.93005        7.24807       -1.01353
H          6.76714        8.30270       -2.11649
H          8.94388        3.29366       13.21245
H          0.95607        4.46043       13.58052
    &END COORD
!    &TOPOLOGY
!      COORD_FILE_NAME   ./water.xyz
!      COORD_FILE_FORMAT xyz
!    &END TOPOLOGY
    &KIND Pb
      BASIS_SET DZVP-MOLOPT-SR-GTH-q4
      POTENTIAL GTH-PBE-q4
    &END KIND
    &KIND Br
      BASIS_SET DZVP-MOLOPT-SR-GTH-q7
      POTENTIAL GTH-PBE-q7
    &END KIND
    &KIND O
      BASIS_SET DZVP-MOLOPT-GTH-q6
      POTENTIAL GTH-PBE-q6
    &END KIND
    &KIND H
      BASIS_SET DZVP-MOLOPT-SR-GTH-q1
      POTENTIAL GTH-PBE-q1
    &END KIND
    &KIND C
      BASIS_SET DZVP-MOLOPT-GTH-q4
      POTENTIAL GTH-PBE-q4
!      BASIS_SET AUX_FIT cFIT3 !SZV-MOLOPT-SR-GTH
    &END KIND
    &KIND N
      BASIS_SET DZVP-MOLOPT-GTH-q5
      POTENTIAL GTH-PBE-q5
!      BASIS_SET AUX_FIT cFIT3 !SZV-MOLOPT-SR-GTH
    &END KIND
    &KIND Sn
      BASIS_SET DZVP-MOLOPT-SR-GTH-q4
      POTENTIAL GTH-PBE-q4
!      BASIS_SET AUX_FIT cFIT6 !SZV-MOLOPT-SR-GTH
    &END KIND
  &END SUBSYS
&END FORCE_EVAL
&MOTION
 &MD
    STEPS        50000000
    TIMESTEP     0.48
    TEMPERATURE  350
    ENSEMBLE     NVT
    &THERMOSTAT
      REGION MASSIVE
      TYPE NOSE
      &NOSE
        TIMECON  16.68
      &END NOSE
    &END THERMOSTAT
!    &BAROSTAT
!      PRESSURE  0.0
!      TIMECON   300
!    &END BAROSTAT
  &END MD
  &PRINT
   &TRAJECTORY
     &EACH
       MD 1
     &END EACH
   &END TRAJECTORY
   &CELL
     &EACH
       MD 1
     &END EACH
   &END CELL
   &VELOCITIES OFF
   &END VELOCITIES
   &FORCES OFF
   &END FORCES
   &RESTART_HISTORY
     &EACH
       MD 500
     &END EACH
   &END RESTART_HISTORY
   &RESTART
     BACKUP_COPIES 3
     &EACH
       MD 1
     &END EACH
   &END RESTART
  &END PRINT
&END MOTION
&GLOBAL
  PROJECT      perov-md
  RUN_TYPE     MD
  PRINT_LEVEL  LOW
&END GLOBAL
