        &GLOBAL
  PROJECT p0
  RUN_TYPE WFN_OPT
  EXTENDED_FFT_LENGTHS
  PRINT_LEVEL LOW
&END GLOBAL
&FORCE_EVAL
  METHOD Quickstep
  &DFT
            BASIS_SET_FILE_NAME /usr/local/cp2k-6.1/data/BASIS_MOLOPT
            POTENTIAL_FILE_NAME /usr/local/cp2k-6.1/data/GTH_POTENTIALS
            BASIS_SET_FILE_NAME /usr/local/cp2k-6.1/data/BASIS_ADMM_MOLOPT
            BASIS_SET_FILE_NAME /usr/local/cp2k-6.1/data/BASIS_ADMM
            WFN_RESTART_FILE_NAME el-RESTART.wfn
!           UKS
!           MULTIPLICITY 3
!           RELAX_MULTIPLICITY 0.001
            CHARGE -2
    &MGRID
      CUTOFF 400
    &END MGRID
    &QS
      METHOD GPW
    &END QS
    &SCF
      SCF_GUESS  RESTART
      EPS_LUMO 1.0E-7
      MAX_SCF    100
      &OT
        MINIMIZER       CG
        PRECONDITIONER  FULL_SINGLE_INVERSE
      &END
      &OUTER_SCF
       EPS_SCF  1.0E-7
        MAX_SCF  50
      &END
!      &PRINT
!        &RESTART OFF
!        &END
!      &END
    &END SCF
    &AUXILIARY_DENSITY_MATRIX_METHOD
        METHOD BASIS_PROJECTION
        ADMM_PURIFICATION_METHOD NONE
     &END AUXILIARY_DENSITY_MATRIX_METHOD
    &PRINT
!       &MO LOW
!          EIGENVALUES
!          &EACH
!              QS_SCF 0
!          &END EACH
!       &END MO
       &MO_CUBES
      NHOMO 1
!       NLUMO 1
        WRITE_CUBE
       &END MO_CUBES
!       &TOT_DENSITY_CUBE
!       &END
    &END PRINT
&XC
 &XC_FUNCTIONAL
  &PBE
   SCALE_X 0.8243
   SCALE_C 1.0
 &END PBE
 &PBE_HOLE_T_C_LR
 CUTOFF_RADIUS 6.00
 SCALE_X 0.1757
 &END PBE_HOLE_T_C_LR
&END XC_FUNCTIONAL
&HF
&SCREENING
EPS_SCHWARZ 1.0E-6
SCREEN_ON_INITIAL_P FALSE
&END SCREENING
&INTERACTION_POTENTIAL
POTENTIAL_TYPE TRUNCATED
CUTOFF_RADIUS 6.00
T_C_G_DATA /usr/local/cp2k-6.1/data/t_c_g.dat
&END INTERACTION_POTENTIAL
&MEMORY
MAX_MEMORY 3600
EPS_STORAGE_SCALING 0.1
&END MEMORY
FRACTION 0.1757
&END HF
      ! non-local vdW part
      &vdW_POTENTIAL
         DISPERSION_FUNCTIONAL NON_LOCAL
         &NON_LOCAL
           TYPE RVV10
           PARAMETERS  6.3  0.0093
           KERNEL_FILE_NAME   /usr/local/cp2k-6.1/data/rVV10_kernel_table.dat
           CUTOFF      400
         &END NON_LOCAL
      &END vdW_POTENTIAL
    &END XC
  &END DFT
  &SUBSYS
    &CELL
      ABC  24.548 12.071 47.500
    &END CELL
    &COORD
  C        13.2927724972        5.8577286603       26.6595437295
 Br        15.7187531486        6.3454817105       23.8464237506
 Sn        16.2750496521        3.6607049971       23.3854164251
 Br        19.3083897173        3.8639348217       24.6089864562
 Br        16.8821233700        3.5363559402       20.6664851425
 Br        13.5986907938        3.1754367029       22.5433798102
 Sn        22.1081518929        3.5351154992       23.4624326917
 Br        22.6460705642        3.6897539892       26.3656988502
 Br        21.7476200251        0.9646984318       23.1242714669
 Br        23.2277015396        3.7161573128       19.7722374172
 Sn        23.2957421296        3.6890640832       17.1905718720
 Br        20.3895776403        3.7064266075       17.3580701785
 Br        18.3819437324        0.9607732573       15.5709147568
 Sn        16.5006227377        2.7405782645       16.5006819933
 Br        14.2551867902        1.2664529755       15.9299774807
 Br        11.6077629893        5.1345108919       15.2062699342
 Br        16.2875790207        3.9016947031       27.3137192727
 Sn        16.3779295255        3.9168699662       30.2180423322
 Br        17.1348427599        1.4298719864       30.1844407025
 Br        18.8061929982        5.1833350447       30.3200103728
 Br        12.7814101515        3.5600214554       29.8333117942
 Sn        22.3892351625        4.0709963011       30.2209799964
 Br        22.6494673652        4.2005075550       33.0429943236
 Br        22.6807993808        6.8183570343       30.0244127352
 Sn        22.0522447145        3.7332260999       37.1433722222
 Br        22.0360074848        3.4765531968       39.7546177492
 Br        21.6262534267        0.4616276158       37.5200340770
 Br        18.6629424277        4.8484901391       37.4775980667
 Sn        15.8617082811        4.3923578865       37.0598498205
 Br        16.2211178780        4.0645204869       34.3637063942
 Br        14.1688437761        6.6003429471       37.1133769327
 Br        13.3569909193        3.0528582282       36.8091182242
 Br        16.5944366665        3.7440546263       41.8781897282
 Sn        16.2391842264        3.9746458034       44.4435154806
 Br        16.8690765286        1.1717154903       44.6507955489
 Br        19.0246850500        4.3266007203       44.7020323214
 Br        12.5588654256        3.6433562068       44.0831649231
 Sn        22.2027731788        4.3534878121       44.0679145149
 Br        22.1837169420        7.0771925685       44.6095836106
 Br        22.5048472520        6.5909075581       37.9623832998
 Sn        21.8105756767        9.8005623769       37.1960639172
 Br        21.9745097954        9.7398279376       39.9383921141
 Br        18.9197665708        9.1295936151       36.9689145250
 Br        12.6336128179       10.3452317123       37.6847160967
 Sn        15.3647351636        9.6054687905       37.2508414342
 Br        14.7963757994        9.4778596136       34.6258316411
 Br        15.8822299402        0.3339115571       36.8191840546
 Br        21.4998330947       10.1049370529       33.3596940378
 Sn        21.6917025814       10.2134123816       30.3761802912
 Br        21.6695573568        0.9577998750       31.0645110391
 Br        18.9548431729       10.2046253977       30.1421687787
 Br        12.7531497486        9.7587703229       31.1209795854
 Sn        15.2661640306       10.0031588869       30.1614629546
 Br        15.2055300326        7.4212848682       30.2576686740
 Br        15.0348053051       10.0569027630       27.3516677521
 Sn        15.7907410983        9.8913958483       23.4169221206
 Br        15.4723310776        9.3512324544       20.8833962628
 Br        17.2754577713        0.1341509943       22.9556452210
 Br        19.1658427272        9.0339572857       23.1969669591
 Sn        21.8743597841        9.6570646359       23.4260910985
 Br        21.3351454616       10.1895957285       26.2116184545
 Br        22.3953599386        7.1999712310       23.8667523268
 Br        12.9987805566       10.4850619438       23.6241554630
 Br        21.6266565131        9.1507661376       19.4053366924
 Sn        22.2413325292        9.4357718146       16.4925788495
 Br        21.9894627648       12.3565299523       16.2431572477
 Br        19.0956269136        8.7741889048       15.9258623072
 Br        15.3354037668        9.9402608001       17.2698818320
 Sn        16.3630875724        9.6011627058       14.7535437651
 Br        15.8220150410        6.8065094380       14.8472805775
 Br        14.4305620611        9.7940089752       41.8727438298
 Sn        15.3039679467        9.4828617652       44.6599961498
 Br        16.9938671421        7.2228364933       44.2514067072
 Br        20.4725418515       11.1562651583       44.0951920437
 Sn        23.0953245607       10.2816808279       44.1880803487
 Br        23.9123012641        0.7020817268       44.8769055787
 Br        13.1076596096        7.9094629890       44.9816316762
  N        19.7845570575        6.4840512493       19.6166717369
  C        18.4617812721        7.1105266764       19.3773454661
  C        19.9219665472        6.0218339309       21.0403346330
  N        19.1195969226        7.0629107383       34.4928829549
  C        18.1961434878        7.6530786495       33.5219157568
  C        19.9740046059        5.9791128189       33.9251977903
  N        19.2890607410        7.1984048424       39.9205722216
  C        19.9746254174        6.1636378538       40.7816430018
  C        17.9493290398        7.6914325851       40.4971683378
  N        18.7638425407        7.0239345867       26.4431731128
  C        20.0800354910        6.8099334189       27.1985638208
  C        17.7303731955        7.9167539518       27.1558130108
  N        19.5811695523        0.0222208243       18.6747743644
  C        18.5708601103       11.2738945491       19.4204936828
  N        18.6199677825        0.5174759106       33.0142638084
  C        17.4448378146       11.6452011164       33.2681229218
  N        19.3549734940        0.9003110278       26.3237148262
  C        19.7686119285        1.7639455848       27.5532023668
  N        18.6549494677        0.3385708457       41.8919912045
  C        19.4565832744        1.5764266076       41.6473712724
  N        12.1924193186        7.0293995579       33.1086980534
  C        13.3485067860        6.0705878020       33.1471496821
  N        12.7040637815        6.0854946377       19.6296560875
  C        14.0163761530        5.9259778378       18.9396961635
  N        12.2836877304        6.9814388509       41.1117482508
  C        24.2631294040        7.1845539611       41.8907885910
  N        12.3158296997        6.9749448146       26.8889692188
  C        24.3584269264        7.9670392607       26.9046734642
  C        24.0918496097       12.6261428831       33.8795927904
  N        13.7525745810        0.7470814320       34.3821879120
  C        24.5362840262       12.3697581367       20.4099648215
  N        13.6316417889        0.3470160919       20.5647824034
  C        13.9958063004        1.5182745002       39.9182716138
  N        12.6067944475        1.0203673903       39.7010853276
  C        13.5444436351        1.2244895326       25.7631124017
  N        12.7854075392        0.1595191663       26.3957862291
  C        19.1622847090        1.2618751875       34.1914872761
  C        20.1033239089        1.1211027652       19.5376250685
  C        25.0554626344        6.7106414564       21.4659008264
  C        23.9839425242        7.5620026027       34.5930045406
  C        18.0693074538        0.1605596854       26.5786583887
  C        17.7321044043       -0.0878380384       40.8112329371
  C        13.4443471560        6.1142547500       40.7174746440
  C        14.2849641694        1.2794629366       19.5411602632
  C        14.1589318564        1.0807930585       33.0217817998
  C        24.3714365368        0.0639600753       27.7034646668
  C        24.0678523262        0.3759221136       40.3333803788
  H        18.6161630045        6.7288316163       35.3498763008
  H        11.7681448685        7.0247702228       26.0294102774
  H        24.2797135986        1.0395982623       25.9686653104
  H        19.4516491733       12.1224765546       32.5807049124
  H        19.0149832420        7.4946895354       25.5391144150
  H        23.5259085461        6.2187107658       33.1505704624
  H        14.3959969356       12.2573483672       34.9876687087
  H        20.1070923541        0.1953196508       26.1833577070
  H        19.7449917723        7.7902105636       34.9000166015
  H        12.8118313966        7.8294837332       27.0599342194
  H        13.3858772454       -0.6391915248       26.3272035454
  H        18.4123384984        1.2162637970       32.2832633189
  H        18.4242904315        6.1639919471       26.0786511402
  H        12.4744468804        7.9131501869       32.7003717371
  H        13.7019102964        1.6813064313       34.8784012632
  H        19.3653331760        1.5953304907       25.5265196730
  H        18.6306472706        8.3493259428       32.7456262999
  H        14.1246985918        6.1915948564       27.1387263633
  H        25.0591806692       -0.7181739007       28.1236008498
  H        20.2320289388        1.5166367271       34.0575951119
  H        20.3141479577        7.6285910042       27.9247140770
  H        24.1438176173        6.8406412628       35.3513015180
  H        13.3380296587        1.5560418489       32.4412032251
  H        17.5481233782       -0.0695992368       25.6272463772
  H        17.4203730761        8.1482505630       34.0347303241
  H        13.5193435108        5.7088895215       25.6042932120
  H        23.3491230389       -0.3805131032       27.4679693092
  H        18.9737687278        0.7097161905       35.1038664508
  H        19.9225130113        5.9037565005       27.7757116568
  H        24.6202666748        8.4617779441       34.8323783796
  H        14.9691019570        1.7910647045       33.0258335416
  H        18.4504665966       -0.7383699293       27.0225715939
  H        17.6464593341        6.8607761299       32.9207679339
  H        12.9676580705        4.9483333537       27.1107775898
  H        13.3165403252       11.8706864209       28.4697356513
  H        18.5830720749        2.1954531011       34.3112727892
  H        20.8837666522        6.5784866999       26.4943490499
  H        10.9734231651        6.0451373070       34.6046392437
  H        14.2772922618        0.1816125220       32.4406369059
  H        17.5082249283       12.8612112873       27.2164553216
  H        20.8443891742        6.3146340776       33.3861247642
  H        24.7117858977        8.7305054625       27.5934638675
  H        14.5136748102        1.3597084477       26.1872811969
  H        17.0567297549       11.3963160896       32.3021202529
  H        17.5860076456        7.4912321911       28.1622780719
  H        14.1783251839        6.5453704830       33.7328832646
  H        24.4091672217       11.5805271629       33.8145858716
  H        19.8561969406        1.1501641510       28.4413482207
  H        19.3417081900        5.3056367024       33.2970164411
  H        23.3010882400        8.1276803747       26.7701426465
  H        13.0796882945        2.1628525770       26.1755937898
  H        16.7337076478       12.0588546908       33.9916199718
  H        17.9639450335        8.9657869101       27.1912230233
  H        13.0136191103        5.1467663982       33.6053575012
  H        23.4469776902       12.6533887820       34.8396108944
  H        20.7432827457        2.2721577296       27.3174148835
  H        20.3273718648        5.4345779357       34.7884066961
  H        24.6868375373        8.2097252620       25.9382380803
  H        13.4806623133        1.1984106832       24.6784530231
  H        17.8160632790       -1.3938084546       33.6822567944
  H        16.7341078650        7.7732471036       26.7343663100
  H        13.6079060189        5.7503796939       32.1475350154
  H        23.4601769890        0.8547985051       32.9965390797
  H        19.0827923372        2.5810654272       27.6231120711
  H        20.4722053224        7.2815723242       19.4946392751
  H        20.4252273772       11.4963517006       18.3865497506
  H        27.1134507809        6.0800675151       21.3074010788
  H        14.2468609777       11.6724265848       20.8915506232
  H        20.0010496699        5.6448571744       18.9753804336
  H        19.1851975038        0.3742298464       17.7938296600
  H        12.1348820202        6.6627796902       19.0219010009
  H        13.4110536179        0.8924608687       21.4059222469
  H        18.5231697285        7.4273485002       18.2945005442
  H        19.1858148575        1.5199701230       19.9387947189
  H        24.1963979016        6.6834799134       20.7511971842
  H        13.5248736104        1.9317908993       19.0237456181
  H        18.2828320939        7.9257748222       20.0419224774
  H        20.4291237281        1.9675953061       18.9007793529
  H        24.7807122948        6.1614475193       22.4179748331
  H        14.9095959328        1.9421874871       20.0883947562
  H        17.7100382851        6.3427132753       19.4565491822
  H        20.7805995622        0.7619484373       20.3506120781
  H        11.8472984916        7.2414643803       21.2200487298
  H        14.7818173084        0.6311105904       18.7809813136
  H        19.0693777422        5.4413993830       21.3069283380
  H        17.7180423355       11.8862075724       19.7086889324
  H        13.8260610240        5.9168813923       17.8606598635
  H        23.8299918051       13.2554589425       20.2242689156
  H        19.7451056920        7.0125070118       21.5025008293
  H        18.9638112227       10.9340754907       20.3551550541
  H        14.4585106600        6.9167146154       19.0585985339
  H        24.3944148559       11.5537955906       19.6510973181
  H        20.8925890167        5.6666599418       21.3883488282
  H        18.2467023442       -1.6876510976       18.7933070254
  H        14.6543050094        5.1113907676       19.3023696990
  H        24.2897574069       -0.2036886892       21.3625679013
  H        12.6705253323        7.8147498526       41.5302485090
  H        11.9853397051        1.8584170492       39.4595815621
  H        19.8632191831        8.0291207528       39.7970764512
  H        18.0804223668        0.3992287140       42.7577039559
  H        11.7004059776        6.5477525792       41.7764982396
  H        12.6878351898        0.3525405648       38.8680436016
  H        19.1370733210        6.8651253851       38.9987814288
  H        19.3730115466       -0.3159074531       42.1417648401
  H        13.6648707541        5.5416499212       41.6121391350
  H        24.0252237741        1.0961092013       41.1575000317
  H        20.2836953024        6.6556863488       41.7815477161
  H        17.1963242797       12.8592983045       40.4973329984
  H        14.2965035299        6.7701489177       40.4762743052
  H        24.4966942491       -0.6011631653       40.6095919062
  H        19.3173858872        5.3513549101       40.9896054116
  H        18.1963336751       -0.5001612668       39.9105107126
  H        13.1367128612        5.4049717784       40.0205417223
  H        11.6889250480       13.0312918242       41.7141245369
  H        20.7470670794        5.7792643234       40.1426353672
  H        16.9214068299       11.2958782341       41.2678704775
  H        10.8311842462        8.1167873237       40.3526619781
  H        13.9604378527        2.1661930721       40.7864185855
  H        17.1912823206        6.8769743680       40.4475303591
  H        20.2153757834        1.7078113378       42.4041564558
  H        23.6923437343        8.0511399095       41.4982822743
  H        14.3569983236        2.0060343202       39.0141004729
  H        18.0285933624        8.0912252454       41.4772973009
  H        19.8040426278        1.5294672562       40.5798593881
  H        25.0404163713        7.4219583627       42.6451654194
  H        14.6514164639        0.6155641848       40.1708714642
  H        17.6890357236        8.4788982413       39.7687721006
  H        18.7698386407        2.4040932712       41.7555505613
  O        17.0555241359        3.6249084940       48.7280469606
  H        17.9085810453        3.2206113312       48.4367936566
  H        16.4175115443        3.2143696018       48.0984819913
  O        17.5309468408        9.4894584090       46.7995758833
  H        18.4755676305        9.3478778695       46.4609456762
  H        17.7159941676       10.1395012341       47.5316245381
  O        22.6255514484       10.0701824147       46.4484065250
  H        23.2704925962        9.7175868327       47.1141486962
  H        21.8160579324        9.4280347243       46.5411914506
  O        22.4290354055        3.9976735623       46.4260948394
  H        22.3145859068        4.6945022288       47.1371459337
  H        21.9402466261        3.1733936996       46.5758449442
  O        23.0076515069        0.7607838726       12.8697511197
  H         9.0306491963        0.0780877432       12.7646802297
  H        23.0312433848        0.2992580015       13.7009795521
  O        22.4169057656        9.1257005248       13.7175386542
  H        22.4928691858        8.1962886706       13.4944644329
  H        23.3762547510        9.4142561786       13.5307533293
  O        14.1083514769       10.3140527613       13.7258043342
  H        13.9431652676       10.2209364708       12.7506933826
  H        13.5706775460        9.5525883560       14.0729841556
  O        16.3265469881        3.6045141866       14.2713707913
  H        17.1307609424        3.2866538681       13.7593853837
  H        16.2572038781        4.6112090217       14.2256648382
  O        15.1315928941        8.8073203948        7.9817882758
  O        23.9173413658        2.3651882721        5.4848086665
  O        13.3284391398        3.9325648747        5.4161700085
  O        25.5582369049       13.8864465083        9.5305060890
  O        21.3530025128        5.4049098046        6.4550657437
  O        16.0355114563        4.5461842263        3.6418886309
  O        17.2876026809        6.7007220468        0.3153656564
  O        23.6804869639        7.5134515299       10.6431828435
  O        15.4699946584       11.6556455566        2.1018268959
  O        15.4002126544        5.6904647902        6.8406827289
  O        13.5895347630        3.3490296892        9.0423933022
  O        15.0744172075        8.4417828496        1.5599505988
  O        11.3646198113        5.0985114368       10.5922207957
  O        17.7009366664        4.3385310005        8.1404765356
  O        14.6940046598        9.9879565402        5.5512986828
  O        11.0251993211        2.7631668393        2.5877942511
  O        12.9369445817        8.3750918975        4.3545072284
  O        22.1758613944        5.7841734436        0.5929261342
  O        15.7701915214       12.1597842818        7.6977062049
  O        20.8186927484       13.8265175840       -1.2069831894
  O        20.8205084152        2.6153978724       13.6009400331
  O        18.1206420647        6.9118252928        3.7594909857
  O        15.4974554952       -0.1399014162       11.6337961016
  O        20.8381727528        7.0066196147       11.3904528042
  O        18.9166722500        1.5919456689        1.1529466684
  O        14.9962524958        1.5559897234        0.1429700417
  O        17.7424930589        5.7007164369       10.6718234424
  O        18.0370616909       11.1117705425        1.8694617047
  O        17.1573794590        1.7158586682        9.5494360257
  O        14.9147174078        7.4620547394       10.5992164328
  O        13.0994571536        0.1925185290        8.8470323788
  O        22.3772437934        7.8775946250        2.9473378238
  O        14.1800086348        6.3542326156        2.9105521009
  O        23.2632126575        3.6158387662        9.3003533306
  O        20.5740607542        2.6293138364        3.8352938577
  O        16.5513574695        9.4471550692       11.6002595569
  O        20.6691044200        3.1576957027       10.3217237661
  O        20.3359336176        8.4066528661        5.2093901317
  O        17.1621938183        9.2898671208        4.8944856620
  O        19.9432900810        2.6322474657        7.3893148275
  O        17.6949881199        0.1759365469        5.4581836613
  O        20.3682863308       11.9935671949        6.5478459913
  O        22.4851936589       11.8906471272        1.8318952012
  O        19.7004218723        7.3007918441        1.5238735207
  O        23.1717248095       10.3472723255        7.3694828249
  O        18.5057630349        3.2834210549       12.7057335725
  O        19.5887879915        9.1674760086       12.4879450693
  O        25.7501390421        1.9297992903       12.2996053879
  O        24.2640625341        9.1601791832        1.1844025449
  O        19.1336592586       11.9070544015        9.1327163202
  O        19.7818707179        7.7666364401        7.9946343134
  O        20.8656668823       11.2447918823       11.1959816084
  O        13.7565897914        2.4252473189       12.0381829692
  O        17.6872672100        9.5359443716        8.1800550844
  O        13.1317015864        3.5863664802        1.1840699774
  O        23.4348764773        7.8676430394        7.9368242004
  O        19.8710833725       10.9147184247        3.5844601345
  O        12.7823325229        7.1400967165       12.3806504548
  O        10.3030939521       13.2011288239        9.1073001648
  O        22.9797043579        4.6019463423        4.5423435404
  O        23.7138636509       10.4196033340       10.7868947264
  O        17.8598182919        3.0241446076        5.1407464121
  O        24.2311498284        6.9517000483        5.5521567761
  O        20.2881324887        8.6911617561       -0.7924430334
  H        16.0829031294        9.0609666392        8.1729838558
  H        14.8872427789        9.2497957382        7.1083112196
  H        24.0286475800        1.8620966467        4.6899877197
  H        24.8228288837        2.7174320576        5.6892694052
  H        12.4764111681        3.4506266771        5.7247544636
  H        12.9841596630        4.2958007076        4.6029601177
  H        25.4688595114       13.7045755974       10.5042654684
  H        24.7836751949       14.4580068450        9.3079081668
  H        20.8197649114        6.2390129730        6.1711306116
  H        21.8919759412        5.1496312057        5.6999348732
  H        16.5167373108        4.3352936371        2.8149614351
  H        16.4385002433        3.8182147275        4.1965017152
  H        17.3281285948        7.0775968059       -0.6186011963
  H        17.1281351544        5.7808015513        0.1244329797
  H        23.7983255865        8.4799843807       10.6014230973
  H        22.7930291763        7.2538818952       10.8108410203
  H        15.3714008289       12.0002757607        2.9922252467
  H        16.4264352044       11.3951402090        1.9563226773
  H        14.6887137267        5.4573943066        6.2188454740
  H        14.9299365312        6.3785112517        7.3494053679
  H        13.5932500526        3.3363324828       10.0532417618
  H        14.5598765902        3.5044668041        8.8914253138
  H        14.8361462090        9.3612846121        1.7018393004
  H        16.0252633445        8.5098176075        1.3124117007
  H        11.9410026732        5.6163401636       11.1836513122
  H        10.6703838041        4.6632548321       11.1059105180
  H        17.5617430699        4.9982877488        8.8424665528
  H        17.0295365416        4.4733923491        7.4352910286
  H        13.9471071979        9.5280720299        5.0770408818
  H        14.6220556741       10.9213437445        5.7009990681
  H        10.8497321062        1.8781919942        2.1680507399
  H        11.7593253933        3.1086907216        2.1590569255
  H        13.5173216963        7.7029539585        3.9499526384
  H        12.2371863916        7.9499974682        4.9207949943
  H        21.2955518031        6.2304264054        0.8458397683
  H        22.7625567290        5.7137041679        1.4127293620
  H        15.9351520440       12.6244148229        8.5692119419
  H        15.4794332038       12.8846525503        7.1333656586
  H        20.0343454560       14.3055110971       -1.6102232996
  H        21.0202583164       13.1430724444       -1.8362054407
  H        21.6696541399        2.2061929779       13.3596038587
  H        20.5773547383        2.1276735529       14.4054602362
  H        17.6598021178        7.7483966234        4.0230833151
  H        17.5546928906        6.1888947034        3.9863664572
  H        14.8743347730        0.1838019095       12.3182805515
  H        15.6276129056       12.8308955256       11.1927768388
  H        20.2753750005        6.2230769110       11.1770120466
  H        20.2472394981        7.7982869856       11.8301796026
  H        19.5923878976        1.5095501807        0.4611822239
  H        19.4826027949        1.8392038364        1.9346063596
  H        15.2416846987        1.2063925726       -0.7308314954
  H        15.1989379670        0.8439853277        0.8705353968
  H        17.8777189900        5.2237704419       11.5143082068
  H        17.5376132833        6.5978528051       10.8522569799
  H        18.5845302178       10.7955123555        2.6775248409
  H        18.4204226743       12.0359057222        1.5782027037
  H        17.3403789703        2.5230754249        9.0649383827
  H        17.9114681891        1.2144748201        9.2508085599
  H        14.0361857877        7.1458524682       10.7356308886
  H        14.8098559593        7.7744853561        9.7070040386
  H        13.9683573616       -0.0994055926        8.5260735844
  H        13.2201938871        1.1795420583        8.9507802540
  H        22.9585484464        7.3166739765        3.4708255143
  H        21.5793668318        7.9582489495        3.4875276444
  H        14.9783217833        5.8650510360        3.3179866465
  H        14.5115501526        6.9920779141        2.2189263535
  H        22.3142625280        3.7994597445        9.5761898032
  H        23.6535101399        4.4777311540        8.9365550135
  H        21.1584497844        3.4046480341        4.0377659942
  H        21.0763179992        1.9527447281        4.2996353429
  H        15.6510641307        8.9234943812       11.4398877707
  H        16.2686215125       10.3742370094       11.5583529658
  H        19.9962406111        2.5931199799        9.9955269653
  H        19.6851295339        7.7918128997        4.7672890091
  H        20.1979846514        8.2907236416        6.1879367391
  H        17.6926895131        9.3678664761        5.7340477010
  H        16.2114216107        9.4503086893        5.1391200277
  H        19.2115062482        2.9250506418        6.7975377140